k-point density of [50, 50, 50]/[a, b, c]
0
Gamma
9.0 9.0 13.0
