Ti4 Ga6
1.0
   6.2427974108680475    0.0000000000000000    0.0000000000000004
   0.0000000000000010    6.2427974108680475    0.0000000000000004
   0.0000000000000000    0.0000000000000000    3.9764321200000001
Ti Ga
4 6
direct
   0.8727678700000000    0.6964506300000000    0.5000000000000000 Ti
   0.6964506300000000    0.1272321300000000    0.5000000000000000 Ti
   0.3035493700000000    0.8727678700000000    0.5000000000000000 Ti
   0.1272321300000000    0.3035493700000000    0.5000000000000000 Ti
   0.8176550800000000    0.3958003900000000    0.0000000000000000 Ga
   0.6041996100000000    0.8176550800000000    0.0000000000000000 Ga
   0.1823449200000000    0.6041996100000000    0.0000000000000000 Ga
   0.3958003900000000    0.1823449200000000    0.0000000000000000 Ga
   0.5000000000000000    0.5000000000000000    0.5000000000000000 Ga
   0.0000000000000000    0.0000000000000000    0.0000000000000000 Ga
