Sb12 Te18                               
   1.00000000000000     
     3.7504494696278066    0.0000000000000000   -2.1653229573382307
     0.0000000000000050   31.3373012839739999    0.0000000000000019
     0.0000000000000000    0.0000000000000000   17.3225839799066819
   Sb   Te
    12    18
Selective dynamics
Direct
  0.6666669999999968  0.0633932223740956  0.0416666249999977   F   F   F
  0.6565626301674946  0.2576256803709102  0.0366144400837468   T   T   T
 -0.0230134502095758  0.3693710096727265  0.1968266498952142   T   T   T
 -0.0826515870808607  0.6083399913742096  0.1670075814595720   T   T   T
  0.2741304693625851  0.7251809168146458  0.0953988596812906   T   T   T
  0.3390964593333651  0.9214870788667450  0.1278818546666806   T   T   T
  0.7089467410164199  0.0632034362289647  0.3128064955082093   T   T   T
  0.6666669999999968  0.2699407776259051  0.2916666249999977   F   F   F
  0.0000000000000000  0.3967262223740917  0.4583333750000023   F   F   F
 -0.0801811913713368  0.6129870647253377  0.4182427793143339   T   T   T
  0.2929228295554101  0.7473147594795819  0.3547950397777027   T   T   T
  0.3181872541294615  0.9473342816267100  0.3674272520647288   T   T   T
  0.0007559277615811  0.2167321627600025  0.2087113388807927   T   T   T
  0.3047990129812968  0.1126389440203837  0.1107331314906466   T   T   T
 -0.0197353533726004 -0.0019802040188458  0.1984656983137021   T   T   T
  0.3333330000000032  0.5487097133244276  0.1250001249999997   F   F   F
  0.6505029282572937  0.4061648652873571  0.0335845891286462   T   T   T
  0.1803162520848474  0.3218460882209969  0.0484917510424218   T   T   T
  0.6855771930603187  0.8703162875169167  0.0511217215301586   T   T   T
 -0.0496331407794920  0.7876229490898897  0.1835168046102562   T   T   T
  0.6209216404108364  0.6685893696766003  0.0187939452054177   T   T   T
  0.0071508846514841  0.2446854068455984  0.4619088173257444   T   T   T
  0.3333330000000032  0.1179562866755717  0.3750001249999997   F   F   F
  0.0000000000000000  0.0000000000000000  0.4583333750000023   F   F   F
  0.2873665554086000  0.5622755786082396  0.3520169027042980   T   T   T
  0.6342580316395300  0.4237436592793721  0.2754621408197643   T   T   T
  0.4819888263938912  0.3323765911434459  0.4493280381969442   T   T   T
  0.6801436590277725  0.8799201721475043  0.2984049545138856   T   T   T
 -0.0515039894081724  0.7979858535642810  0.4325813802959159   T   T   T
  0.6169932675431019  0.6750288747479378  0.2668297587715503   T   T   T
 
  0.00000000E+00  0.00000000E+00  0.00000000E+00
  0.00000000E+00  0.00000000E+00  0.00000000E+00
  0.00000000E+00  0.00000000E+00  0.00000000E+00
  0.00000000E+00  0.00000000E+00  0.00000000E+00
  0.00000000E+00  0.00000000E+00  0.00000000E+00
  0.00000000E+00  0.00000000E+00  0.00000000E+00
  0.00000000E+00  0.00000000E+00  0.00000000E+00
  0.00000000E+00  0.00000000E+00  0.00000000E+00
  0.00000000E+00  0.00000000E+00  0.00000000E+00
  0.00000000E+00  0.00000000E+00  0.00000000E+00
  0.00000000E+00  0.00000000E+00  0.00000000E+00
  0.00000000E+00  0.00000000E+00  0.00000000E+00
  0.00000000E+00  0.00000000E+00  0.00000000E+00
  0.00000000E+00  0.00000000E+00  0.00000000E+00
  0.00000000E+00  0.00000000E+00  0.00000000E+00
  0.00000000E+00  0.00000000E+00  0.00000000E+00
  0.00000000E+00  0.00000000E+00  0.00000000E+00
  0.00000000E+00  0.00000000E+00  0.00000000E+00
  0.00000000E+00  0.00000000E+00  0.00000000E+00
  0.00000000E+00  0.00000000E+00  0.00000000E+00
  0.00000000E+00  0.00000000E+00  0.00000000E+00
  0.00000000E+00  0.00000000E+00  0.00000000E+00
  0.00000000E+00  0.00000000E+00  0.00000000E+00
  0.00000000E+00  0.00000000E+00  0.00000000E+00
  0.00000000E+00  0.00000000E+00  0.00000000E+00
  0.00000000E+00  0.00000000E+00  0.00000000E+00
  0.00000000E+00  0.00000000E+00  0.00000000E+00
  0.00000000E+00  0.00000000E+00  0.00000000E+00
  0.00000000E+00  0.00000000E+00  0.00000000E+00
  0.00000000E+00  0.00000000E+00  0.00000000E+00
