k-point density of [50, 50, 50]/[a, b, c]
0
Gamma
5.0 2.0 1.0
