Sb216 Se324
1.0
  12.0855531675599206    0.0000000000000000    0.0000000000000006
   0.0000000000000057   34.6256302606701283    0.0000000000000021
   0.0000000000000000    0.0000000000000000   89.8586891276960955
Sb Se
216 324
Selective dynamics
direct
   0.2500000000000000    0.0117831335247230    0.1265441981473290 F F F Sb
   0.2500000000000000    0.3451164668580563    0.1265441981473290 F F F Sb
   0.2500000000000000    0.6784498001913896    0.1265441981473290 F F F Sb
   0.5833333333333334    0.0117831335247230    0.1265441981473290 F F F Sb
   0.5833333333333334    0.3451164668580563    0.1265441981473290 F F F Sb
   0.5833333333333334    0.6784498001913896    0.1265441981473290 F F F Sb
   0.9166666666666667    0.0117831335247230    0.1265441981473290 F F F Sb
   0.9166666666666667    0.3451164668580563    0.1265441981473290 F F F Sb
   0.9166666666666666    0.6784498001913896    0.1265441981473290 F F F Sb
   0.0833333333333333    0.3210766914345318    0.0871620603483360 F F F Sb
   0.0833333333333333    0.6544100247678650    0.0871620603483360 F F F Sb
   0.0833333333333333    0.9877433581011983    0.0871620603483360 F F F Sb
   0.4166666666666666    0.3210766914345318    0.0871620603483360 F F F Sb
   0.4166666666666666    0.6544100247678650    0.0871620603483360 F F F Sb
   0.4166666666666666    0.9877433581011983    0.0871620603483360 F F F Sb
   0.7500000000000000    0.3210766914345318    0.0871620603483360 F F F Sb
   0.7499999999999999    0.6544100247678650    0.0871620603483360 F F F Sb
   0.7500000000000000    0.9877433581011983    0.0871620603483360 F F F Sb
   0.0833333333333333    0.1788057061448806    0.0159999771462651 F F F Sb
   0.0833333333333334    0.5121390394782138    0.0159999771462651 F F F Sb
   0.0833333333333333    0.8454723728115472    0.0159999771462651 F F F Sb
   0.4166666666666667    0.1788057061448806    0.0159999771462651 F F F Sb
   0.4166666666666667    0.5121390394782138    0.0159999771462651 F F F Sb
   0.4166666666666667    0.8454723728115472    0.0159999771462651 F F F Sb
   0.7500000000000000    0.1788057061448806    0.0159999771462651 F F F Sb
   0.7500000000000000    0.5121390394782138    0.0159999771462651 F F F Sb
   0.7500000000000000    0.8454723728115472    0.0159999771462651 F F F Sb
   0.2500000000000000    0.1545276271884527    0.0554285942823114 F F F Sb
   0.2500000000000000    0.4878609605217860    0.0554285942823114 F F F Sb
   0.2500000000000000    0.8211942938551193    0.0554285942823114 F F F Sb
   0.5833333333333333    0.1545276271884527    0.0554285942823114 F F F Sb
   0.5833333333333333    0.4878609605217860    0.0554285942823114 F F F Sb
   0.5833333333333334    0.8211942938551193    0.0554285942823114 F F F Sb
   0.9166666666666666    0.1545276271884527    0.0554285942823114 F F F Sb
   0.9166666666666666    0.4878609605217860    0.0554285942823114 F F F Sb
   0.9166666666666666    0.8211942938551193    0.0554285942823114 F F F Sb
   0.0833333333333333    0.1103992797095538    0.1121181985712035 F F F Sb
   0.0833333333333333    0.4437326130428871    0.1121181985712035 F F F Sb
   0.0833333333333333    0.7770659463762203    0.1121181985712035 F F F Sb
   0.4166666666666666    0.1103992797095538    0.1121181985712035 F F F Sb
   0.4166666666666666    0.4437326130428871    0.1121181985712035 F F F Sb
   0.4166666666666666    0.7770659463762203    0.1121181985712035 F F F Sb
   0.7500000000000001    0.1103992797095538    0.1121181985712035 F F F Sb
   0.7500000000000000    0.4437326130428871    0.1121181985712035 F F F Sb
   0.7500000000000001    0.7770659463762203    0.1121181985712035 F F F Sb
   0.2500000000000000    0.2226096243724209    0.1017005665444263 F F F Sb
   0.2500000000000000    0.5559429577057542    0.1017005665444263 F F F Sb
   0.2500000000000000    0.8892762910390875    0.1017005665444263 F F F Sb
   0.5833333333333334    0.2226096243724209    0.1017005665444263 F F F Sb
   0.5833333333333334    0.5559429577057542    0.1017005665444263 F F F Sb
   0.5833333333333333    0.8892762910390875    0.1017005665444263 F F F Sb
   0.9166666666666666    0.2226096243724209    0.1017005665444263 F F F Sb
   0.9166666666666667    0.5559429577057542    0.1017005665444263 F F F Sb
   0.9166666666666665    0.8892762910390875    0.1017005665444263 F F F Sb
   0.2500000000000001    0.2772268597037026    0.0306257703534456 F F F Sb
   0.2500000000000000    0.6105601930370360    0.0306257703534456 F F F Sb
   0.2500000000000001    0.9438935263703693    0.0306257703534456 F F F Sb
   0.5833333333333334    0.2772268597037026    0.0306257703534456 F F F Sb
   0.5833333333333334    0.6105601930370360    0.0306257703534456 F F F Sb
   0.5833333333333334    0.9438935263703693    0.0306257703534456 F F F Sb
   0.9166666666666667    0.2772268597037026    0.0306257703534456 F F F Sb
   0.9166666666666666    0.6105601930370360    0.0306257703534456 F F F Sb
   0.9166666666666667    0.9438935263703693    0.0306257703534456 F F F Sb
   0.0833333333333333    0.0561064736296307    0.0408028010751309 F F F Sb
   0.0833333333333333    0.3894398069629640    0.0408028010751309 F F F Sb
   0.0833333333333333    0.7227731402962974    0.0408028010751309 F F F Sb
   0.4166666666666667    0.0561064736296307    0.0408028010751309 F F F Sb
   0.4166666666666667    0.3894398069629640    0.0408028010751309 F F F Sb
   0.4166666666666667    0.7227731402962974    0.0408028010751309 F F F Sb
   0.7500000000000000    0.0561064736296307    0.0408028010751309 F F F Sb
   0.7499999999999999    0.3894398069629640    0.0408028010751309 F F F Sb
   0.7499999999999999    0.7227731402962974    0.0408028010751309 F F F Sb
   0.2500000000000000    0.0122219752773412    0.2696601892600636 F F F Sb
   0.2500000000000000    0.3455553086106745    0.2696601892600636 F F F Sb
   0.2500000000000000    0.6788886419440078    0.2696601892600636 F F F Sb
   0.5833333333333334    0.0122219752773412    0.2696601892600636 F F F Sb
   0.5833333333333334    0.3455553086106745    0.2696601892600636 F F F Sb
   0.5833333333333334    0.6788886419440078    0.2696601892600636 F F F Sb
   0.9166666666666667    0.0122219752773412    0.2696601892600636 F F F Sb
   0.9166666666666667    0.3455553086106745    0.2696601892600636 F F F Sb
   0.9166666666666666    0.6788886419440078    0.2696601892600636 F F F Sb
   0.0833333333333333    0.3210807104897715    0.2303444214623277 F F F Sb
   0.0833333333333333    0.6544140438231048    0.2303444214623277 F F F Sb
   0.0833333333333333    0.9877473771564380    0.2303444214623277 F F F Sb
   0.4166666666666666    0.3210807104897715    0.2303444214623277 F F F Sb
   0.4166666666666666    0.6544140438231048    0.2303444214623277 F F F Sb
   0.4166666666666666    0.9877473771564380    0.2303444214623277 F F F Sb
   0.7500000000000000    0.3210807104897715    0.2303444214623277 F F F Sb
   0.7499999999999999    0.6544140438231048    0.2303444214623277 F F F Sb
   0.7500000000000000    0.9877473771564380    0.2303444214623277 F F F Sb
   0.0833333333333333    0.1788057061448806    0.1588571200034039 F F F Sb
   0.0833333333333334    0.5121390394782138    0.1588571200034039 F F F Sb
   0.0833333333333333    0.8454723728115472    0.1588571200034039 F F F Sb
   0.4166666666666667    0.1788057061448806    0.1588571200034039 F F F Sb
   0.4166666666666667    0.5121390394782138    0.1588571200034039 F F F Sb
   0.4166666666666667    0.8454723728115472    0.1588571200034039 F F F Sb
   0.7500000000000000    0.1788057061448806    0.1588571200034039 F F F Sb
   0.7500000000000000    0.5121390394782138    0.1588571200034039 F F F Sb
   0.7500000000000000    0.8454723728115472    0.1588571200034039 F F F Sb
   0.2500000000000000    0.1545276271884527    0.1982857371394502 F F F Sb
   0.2500000000000000    0.4878609605217860    0.1982857371394502 F F F Sb
   0.2500000000000000    0.8211942938551193    0.1982857371394502 F F F Sb
   0.5833333333333333    0.1545276271884527    0.1982857371394502 F F F Sb
   0.5833333333333333    0.4878609605217860    0.1982857371394502 F F F Sb
   0.5833333333333334    0.8211942938551193    0.1982857371394502 F F F Sb
   0.9166666666666666    0.1545276271884527    0.1982857371394502 F F F Sb
   0.9166666666666666    0.4878609605217860    0.1982857371394502 F F F Sb
   0.9166666666666666    0.8211942938551193    0.1982857371394502 F F F Sb
   0.0833333333333333    0.1106351854964009    0.2550873361663208 F F F Sb
   0.0833333333333333    0.4439685188297343    0.2550873361663208 F F F Sb
   0.0833333333333333    0.7773018521630676    0.2550873361663208 F F F Sb
   0.4166666666666666    0.1106351854964009    0.2550873361663208 F F F Sb
   0.4166666666666666    0.4439685188297343    0.2550873361663208 F F F Sb
   0.4166666666666666    0.7773018521630676    0.2550873361663208 F F F Sb
   0.7500000000000001    0.1106351854964009    0.2550873361663208 F F F Sb
   0.7500000000000000    0.4439685188297343    0.2550873361663208 F F F Sb
   0.7500000000000001    0.7773018521630676    0.2550873361663208 F F F Sb
   0.2500000000000000    0.2227249603460900    0.2449229594348775 F F F Sb
   0.2500000000000000    0.5560582936794233    0.2449229594348775 F F F Sb
   0.2500000000000000    0.8893916270127566    0.2449229594348775 F F F Sb
   0.5833333333333334    0.2227249603460900    0.2449229594348775 F F F Sb
   0.5833333333333334    0.5560582936794233    0.2449229594348775 F F F Sb
   0.5833333333333333    0.8893916270127566    0.2449229594348775 F F F Sb
   0.9166666666666666    0.2227249603460900    0.2449229594348775 F F F Sb
   0.9166666666666667    0.5560582936794233    0.2449229594348775 F F F Sb
   0.9166666666666665    0.8893916270127566    0.2449229594348775 F F F Sb
   0.2500000000000001    0.2772268597037026    0.1734829132105844 F F F Sb
   0.2500000000000000    0.6105601930370360    0.1734829132105844 F F F Sb
   0.2500000000000001    0.9438935263703693    0.1734829132105844 F F F Sb
   0.5833333333333334    0.2772268597037026    0.1734829132105844 F F F Sb
   0.5833333333333334    0.6105601930370360    0.1734829132105844 F F F Sb
   0.5833333333333334    0.9438935263703693    0.1734829132105844 F F F Sb
   0.9166666666666667    0.2772268597037026    0.1734829132105844 F F F Sb
   0.9166666666666666    0.6105601930370360    0.1734829132105844 F F F Sb
   0.9166666666666667    0.9438935263703693    0.1734829132105844 F F F Sb
   0.0833333333333333    0.0560412965024332    0.1836947774695513 F F F Sb
   0.0833333333333333    0.3893746298357665    0.1836947774695513 F F F Sb
   0.0833333333333333    0.7227079631690998    0.1836947774695513 F F F Sb
   0.4166666666666667    0.0560412965024332    0.1836947774695513 F F F Sb
   0.4166666666666667    0.3893746298357665    0.1836947774695513 F F F Sb
   0.4166666666666667    0.7227079631690998    0.1836947774695513 F F F Sb
   0.7500000000000000    0.0560412965024332    0.1836947774695513 F F F Sb
   0.7499999999999999    0.3893746298357665    0.1836947774695513 F F F Sb
   0.7499999999999999    0.7227079631690998    0.1836947774695513 F F F Sb
   0.2500000000000000    0.0121390394782139    0.4125714514251655 T T T Sb
   0.2500000000000000    0.3454723728115472    0.4125714514251655 T T T Sb
   0.2500000000000000    0.6788057061448806    0.4125714514251655 T T T Sb
   0.5833333333333334    0.0121390394782139    0.4125714514251655 T T T Sb
   0.5833333333333334    0.3454723728115472    0.4125714514251655 T T T Sb
   0.5833333333333334    0.6788057061448806    0.4125714514251655 T T T Sb
   0.9166666666666667    0.0121390394782139    0.4125714514251655 T T T Sb
   0.9166666666666667    0.3454723728115472    0.4125714514251655 T T T Sb
   0.9166666666666666    0.6788057061448806    0.4125714514251655 T T T Sb
   0.0833333333333333    0.3211942938551193    0.3731428342891192 T T T Sb
   0.0833333333333333    0.6545276271884527    0.3731428342891192 T T T Sb
   0.0833333333333333    0.9878609605217860    0.3731428342891192 T T T Sb
   0.4166666666666666    0.3211942938551193    0.3731428342891192 T T T Sb
   0.4166666666666666    0.6545276271884527    0.3731428342891192 T T T Sb
   0.4166666666666666    0.9878609605217860    0.3731428342891192 T T T Sb
   0.7500000000000000    0.3211942938551193    0.3731428342891192 T T T Sb
   0.7499999999999999    0.6545276271884527    0.3731428342891192 T T T Sb
   0.7500000000000000    0.9878609605217860    0.3731428342891192 T T T Sb
   0.0833333333333333    0.1785415436311837    0.3019515910824037 T T T Sb
   0.0833333333333334    0.5118748769645169    0.3019515910824037 T T T Sb
   0.0833333333333333    0.8452082102978502    0.3019515910824037 T T T Sb
   0.4166666666666667    0.1785415436311837    0.3019515910824037 T T T Sb
   0.4166666666666667    0.5118748769645169    0.3019515910824037 T T T Sb
   0.4166666666666667    0.8452082102978502    0.3019515910824037 T T T Sb
   0.7500000000000000    0.1785415436311837    0.3019515910824037 T T T Sb
   0.7500000000000000    0.5118748769645169    0.3019515910824037 T T T Sb
   0.7500000000000000    0.8452082102978502    0.3019515910824038 T T T Sb
   0.2500000000000000    0.1540973688692153    0.3413114606991385 T T T Sb
   0.2500000000000000    0.4874307022025486    0.3413114606991385 T T T Sb
   0.2500000000000000    0.8207640355358820    0.3413114606991385 T T T Sb
   0.5833333333333333    0.1540973688692153    0.3413114606991385 T T T Sb
   0.5833333333333333    0.4874307022025486    0.3413114606991385 T T T Sb
   0.5833333333333334    0.8207640355358820    0.3413114606991385 T T T Sb
   0.9166666666666666    0.1540973688692153    0.3413114606991385 T T T Sb
   0.9166666666666666    0.4874307022025486    0.3413114606991385 T T T Sb
   0.9166666666666666    0.8207640355358820    0.3413114606991385 T T T Sb
   0.0833333333333333    0.1134391290150899    0.3995413034629072 T T T Sb
   0.0833333333333333    0.4467724623484232    0.3995413034629072 T T T Sb
   0.0833333333333333    0.7801057956817565    0.3995413034629072 T T T Sb
   0.4166666666666666    0.1134391290150899    0.3995413034629072 T T T Sb
   0.4166666666666666    0.4467724623484232    0.3995413034629072 T T T Sb
   0.4166666666666666    0.7801057956817565    0.3995413034629072 T T T Sb
   0.7500000000000001    0.1134391290150899    0.3995413034629072 T T T Sb
   0.7500000000000000    0.4467724623484232    0.3995413034629072 T T T Sb
   0.7500000000000001    0.7801057956817565    0.3995413034629072 T T T Sb
   0.2500000000000000    0.2227768096471085    0.3877454551749551 T T T Sb
   0.2500000000000000    0.5561101429804418    0.3877454551749551 T T T Sb
   0.2500000000000000    0.8894434763137751    0.3877454551749551 T T T Sb
   0.5833333333333334    0.2227768096471085    0.3877454551749551 T T T Sb
   0.5833333333333334    0.5561101429804418    0.3877454551749551 T T T Sb
   0.5833333333333333    0.8894434763137751    0.3877454551749551 T T T Sb
   0.9166666666666666    0.2227768096471085    0.3877454551749551 T T T Sb
   0.9166666666666667    0.5561101429804418    0.3877454551749551 T T T Sb
   0.9166666666666665    0.8894434763137751    0.3877454551749551 T T T Sb
   0.2500000000000001    0.2770263744790004    0.3164292592258104 T T T Sb
   0.2500000000000000    0.6103597078123336    0.3164292592258104 T T T Sb
   0.2500000000000001    0.9436930411456671    0.3164292592258104 T T T Sb
   0.5833333333333334    0.2770263744790004    0.3164292592258104 T T T Sb
   0.5833333333333334    0.6103597078123336    0.3164292592258104 T T T Sb
   0.5833333333333334    0.9436930411456671    0.3164292592258104 T T T Sb
   0.9166666666666667    0.2770263744790004    0.3164292592258104 T T T Sb
   0.9166666666666666    0.6103597078123336    0.3164292592258104 T T T Sb
   0.9166666666666667    0.9436930411456671    0.3164292592258104 T T T Sb
   0.0833333333333333    0.0558771198579609    0.3266631839689755 T T T Sb
   0.0833333333333333    0.3892104531912942    0.3266631839689755 T T T Sb
   0.0833333333333333    0.7225437865246274    0.3266631839689755 T T T Sb
   0.4166666666666667    0.0558771198579609    0.3266631839689755 T T T Sb
   0.4166666666666667    0.3892104531912942    0.3266631839689755 T T T Sb
   0.4166666666666667    0.7225437865246274    0.3266631839689755 T T T Sb
   0.7500000000000000    0.0558771198579609    0.3266631839689755 T T T Sb
   0.7499999999999999    0.3892104531912942    0.3266631839689755 T T T Sb
   0.7499999999999999    0.7225437865246274    0.3266631839689755 T T T Sb
   0.2500000000000001    0.0439923315597948    0.1001406911692876 F F F Se
   0.2500000000000000    0.3773256648931281    0.1001406911692876 F F F Se
   0.2500000000000001    0.7106589982264614    0.1001406911692876 F F F Se
   0.5833333333333334    0.0439923315597948    0.1001406911692876 F F F Se
   0.5833333333333333    0.3773256648931281    0.1001406911692876 F F F Se
   0.5833333333333334    0.7106589982264614    0.1001406911692876 F F F Se
   0.9166666666666667    0.0439923315597948    0.1001406911692876 F F F Se
   0.9166666666666666    0.3773256648931281    0.1001406911692876 F F F Se
   0.9166666666666666    0.7106589982264614    0.1001406911692876 F F F Se
   0.0833333333333333    0.2886805170394288    0.1135887017695560 F F F Se
   0.0833333333333333    0.6220138503727620    0.1135887017695560 F F F Se
   0.0833333333333333    0.9553471837060955    0.1135887017695560 F F F Se
   0.4166666666666667    0.2886805170394288    0.1135887017695560 F F F Se
   0.4166666666666666    0.6220138503727620    0.1135887017695560 F F F Se
   0.4166666666666666    0.9553471837060955    0.1135887017695560 F F F Se
   0.7500000000000000    0.2886805170394288    0.1135887017695560 F F F Se
   0.7499999999999999    0.6220138503727620    0.1135887017695560 F F F Se
   0.7500000000000000    0.9553471837060955    0.1135887017695560 F F F Se
   0.0833333333333333    0.2092820330774477    0.0424609411974926 F F F Se
   0.0833333333333333    0.5426153664107811    0.0424609411974926 F F F Se
   0.0833333333333333    0.8759486997441144    0.0424609411974926 F F F Se
   0.4166666666666667    0.2092820330774477    0.0424609411974926 F F F Se
   0.4166666666666666    0.5426153664107811    0.0424609411974926 F F F Se
   0.4166666666666667    0.8759486997441144    0.0424609411974926 F F F Se
   0.7500000000000000    0.2092820330774477    0.0424609411974926 F F F Se
   0.7500000000000000    0.5426153664107811    0.0424609411974926 F F F Se
   0.7500000000000000    0.8759486997441144    0.0424609411974926 F F F Se
   0.2500000000000000    0.1210881616780221    0.0292220828439708 F F F Se
   0.2500000000000000    0.4544214950113554    0.0292220828439708 F F F Se
   0.2500000000000000    0.7877548283446887    0.0292220828439708 F F F Se
   0.5833333333333333    0.1210881616780221    0.0292220828439708 F F F Se
   0.5833333333333333    0.4544214950113554    0.0292220828439708 F F F Se
   0.5833333333333334    0.7877548283446887    0.0292220828439708 F F F Se
   0.9166666666666666    0.1210881616780221    0.0292220828439708 F F F Se
   0.9166666666666666    0.4544214950113554    0.0292220828439708 F F F Se
   0.9166666666666666    0.7877548283446887    0.0292220828439708 F F F Se
   0.0833333333333333    0.0631722630224151    0.1361248018811879 F F F Se
   0.0833333333333334    0.3965055963557484    0.1361248018811879 F F F Se
   0.0833333333333333    0.7298389296890818    0.1361248018811879 F F F Se
   0.4166666666666666    0.0631722630224151    0.1361248018811879 F F F Se
   0.4166666666666667    0.3965055963557484    0.1361248018811879 F F F Se
   0.4166666666666667    0.7298389296890818    0.1361248018811879 F F F Se
   0.7500000000000001    0.0631722630224151    0.1361248018811879 F F F Se
   0.7499999999999999    0.3965055963557484    0.1361248018811879 F F F Se
   0.7500000000000001    0.7298389296890818    0.1361248018811879 F F F Se
   0.2500000000000000    0.2694692959806343    0.0776552421653943 F F F Se
   0.2500000000000000    0.6028026293139676    0.0776552421653943 F F F Se
   0.2500000000000000    0.9361359626473010    0.0776552421653943 F F F Se
   0.5833333333333334    0.2694692959806343    0.0776552421653943 F F F Se
   0.5833333333333333    0.6028026293139676    0.0776552421653943 F F F Se
   0.5833333333333333    0.9361359626473010    0.0776552421653943 F F F Se
   0.9166666666666666    0.2694692959806343    0.0776552421653943 F F F Se
   0.9166666666666666    0.6028026293139676    0.0776552421653943 F F F Se
   0.9166666666666665    0.9361359626473010    0.0776552421653943 F F F Se
   0.2500000000000000    0.2287830526364837    0.0063521458105057 F F F Se
   0.2500000000000000    0.5621163859698171    0.0063521458105057 F F F Se
   0.2500000000000000    0.8954497193031503    0.0063521458105057 F F F Se
   0.5833333333333334    0.2287830526364837    0.0063521458105057 F F F Se
   0.5833333333333334    0.5621163859698171    0.0063521458105057 F F F Se
   0.5833333333333333    0.8954497193031503    0.0063521458105057 F F F Se
   0.9166666666666666    0.2287830526364837    0.0063521458105057 F F F Se
   0.9166666666666667    0.5621163859698171    0.0063521458105057 F F F Se
   0.9166666666666665    0.8954497193031503    0.0063521458105057 F F F Se
   0.0833333333333333    0.1024337315425286    0.0649312227930746 F F F Se
   0.0833333333333333    0.4357670648758619    0.0649312227930746 F F F Se
   0.0833333333333333    0.7691003982091953    0.0649312227930746 F F F Se
   0.4166666666666666    0.1024337315425286    0.0649312227930746 F F F Se
   0.4166666666666666    0.4357670648758619    0.0649312227930746 F F F Se
   0.4166666666666666    0.7691003982091953    0.0649312227930746 F F F Se
   0.7500000000000001    0.1024337315425286    0.0649312227930746 F F F Se
   0.7500000000000000    0.4357670648758619    0.0649312227930746 F F F Se
   0.7500000000000001    0.7691003982091953    0.0649312227930746 F F F Se
   0.2500000000000000    0.0147475937944929    0.0536999726728226 F F F Se
   0.2500000000000000    0.3480809271278262    0.0536999726728226 F F F Se
   0.2500000000000000    0.6814142604611595    0.0536999726728226 F F F Se
   0.5833333333333334    0.0147475937944929    0.0536999726728226 F F F Se
   0.5833333333333334    0.3480809271278262    0.0536999726728226 F F F Se
   0.5833333333333334    0.6814142604611595    0.0536999726728226 F F F Se
   0.9166666666666667    0.0147475937944929    0.0536999726728226 F F F Se
   0.9166666666666667    0.3480809271278262    0.0536999726728226 F F F Se
   0.9166666666666666    0.6814142604611595    0.0536999726728226 F F F Se
   0.0833333333333333    0.3158561330158549    0.0172366306183666 F F F Se
   0.0833333333333333    0.6491894663491882    0.0172366306183666 F F F Se
   0.0833333333333333    0.9825227996825214    0.0172366306183666 F F F Se
   0.4166666666666666    0.3158561330158549    0.0172366306183666 F F F Se
   0.4166666666666666    0.6491894663491882    0.0172366306183666 F F F Se
   0.4166666666666666    0.9825227996825214    0.0172366306183666 F F F Se
   0.7500000000000000    0.3158561330158549    0.0172366306183666 F F F Se
   0.7499999999999999    0.6491894663491882    0.0172366306183666 F F F Se
   0.7500000000000000    0.9825227996825214    0.0172366306183666 F F F Se
   0.0833333333333333    0.1821449607168889    0.0886394347104399 F F F Se
   0.0833333333333333    0.5154782940502222    0.0886394347104399 F F F Se
   0.0833333333333333    0.8488116273835555    0.0886394347104399 F F F Se
   0.4166666666666667    0.1821449607168889    0.0886394347104399 F F F Se
   0.4166666666666667    0.5154782940502222    0.0886394347104399 F F F Se
   0.4166666666666667    0.8488116273835555    0.0886394347104399 F F F Se
   0.7500000000000000    0.1821449607168889    0.0886394347104399 F F F Se
   0.7500000000000000    0.5154782940502222    0.0886394347104399 F F F Se
   0.7500000000000000    0.8488116273835555    0.0886394347104399 F F F Se
   0.2500000000000000    0.1506184583658077    0.1252271958765645 F F F Se
   0.2500000000000000    0.4839517916991410    0.1252271958765645 F F F Se
   0.2500000000000000    0.8172851250324743    0.1252271958765645 F F F Se
   0.5833333333333333    0.1506184583658077    0.1252271958765645 F F F Se
   0.5833333333333333    0.4839517916991410    0.1252271958765645 F F F Se
   0.5833333333333334    0.8172851250324743    0.1252271958765645 F F F Se
   0.9166666666666666    0.1506184583658077    0.1252271958765645 F F F Se
   0.9166666666666666    0.4839517916991410    0.1252271958765645 F F F Se
   0.9166666666666666    0.8172851250324743    0.1252271958765645 F F F Se
   0.2500000000000001    0.0442628390581593    0.2432226766544921 F F F Se
   0.2500000000000000    0.3775961723914926    0.2432226766544921 F F F Se
   0.2500000000000001    0.7109295057248258    0.2432226766544921 F F F Se
   0.5833333333333334    0.0442628390581593    0.2432226766544921 F F F Se
   0.5833333333333333    0.3775961723914926    0.2432226766544921 F F F Se
   0.5833333333333334    0.7109295057248258    0.2432226766544921 F F F Se
   0.9166666666666667    0.0442628390581593    0.2432226766544921 F F F Se
   0.9166666666666666    0.3775961723914926    0.2432226766544921 F F F Se
   0.9166666666666666    0.7109295057248258    0.2432226766544922 F F F Se
   0.0833333333333333    0.2889855078896606    0.2567712003081168 F F F Se
   0.0833333333333333    0.6223188412229939    0.2567712003081168 F F F Se
   0.0833333333333333    0.9556521745563271    0.2567712003081168 F F F Se
   0.4166666666666667    0.2889855078896606    0.2567712003081168 F F F Se
   0.4166666666666666    0.6223188412229939    0.2567712003081168 F F F Se
   0.4166666666666666    0.9556521745563271    0.2567712003081168 F F F Se
   0.7500000000000000    0.2889855078896606    0.2567712003081168 F F F Se
   0.7499999999999999    0.6223188412229939    0.2567712003081168 F F F Se
   0.7500000000000000    0.9556521745563271    0.2567712003081168 F F F Se
   0.0833333333333333    0.2108891711315978    0.1852985601511265 F F F Se
   0.0833333333333333    0.5442225044649310    0.1852985601511265 F F F Se
   0.0833333333333333    0.8775558377982644    0.1852985601511265 F F F Se
   0.4166666666666667    0.2108891711315978    0.1852985601511265 F F F Se
   0.4166666666666666    0.5442225044649310    0.1852985601511265 F F F Se
   0.4166666666666667    0.8775558377982644    0.1852985601511265 F F F Se
   0.7500000000000000    0.2108891711315978    0.1852985601511265 F F F Se
   0.7500000000000000    0.5442225044649310    0.1852985601511265 F F F Se
   0.7500000000000000    0.8775558377982644    0.1852985601511265 F F F Se
   0.2500000000000000    0.1223787551266263    0.1718514025428652 F F F Se
   0.2500000000000000    0.4557120884599596    0.1718514025428652 F F F Se
   0.2500000000000000    0.7890454217932928    0.1718514025428652 F F F Se
   0.5833333333333333    0.1223787551266263    0.1718514025428652 F F F Se
   0.5833333333333333    0.4557120884599596    0.1718514025428652 F F F Se
   0.5833333333333334    0.7890454217932928    0.1718514025428652 F F F Se
   0.9166666666666666    0.1223787551266263    0.1718514025428652 F F F Se
   0.9166666666666666    0.4557120884599596    0.1718514025428652 F F F Se
   0.9166666666666666    0.7890454217932928    0.1718514025428652 F F F Se
   0.0833333333333333    0.0636287557763019    0.2791792442896843 T T T Se
   0.0833333333333334    0.3969620891096352    0.2791792442896843 T T T Se
   0.0833333333333333    0.7302954224429685    0.2791792442896843 T T T Se
   0.4166666666666666    0.0636287557763019    0.2791792442896843 T T T Se
   0.4166666666666667    0.3969620891096352    0.2791792442896843 T T T Se
   0.4166666666666667    0.7302954224429685    0.2791792442896843 T T T Se
   0.7500000000000001    0.0636287557763019    0.2791792442896843 T T T Se
   0.7499999999999999    0.3969620891096352    0.2791792442896843 T T T Se
   0.7500000000000001    0.7302954224429685    0.2791792442896844 T T T Se
   0.2500000000000000    0.2696335149192229    0.2208228184469603 F F F Se
   0.2500000000000000    0.6029668482525562    0.2208228184469603 F F F Se
   0.2500000000000000    0.9363001815858895    0.2208228184469603 F F F Se
   0.5833333333333334    0.2696335149192229    0.2208228184469603 F F F Se
   0.5833333333333333    0.6029668482525562    0.2208228184469603 F F F Se
   0.5833333333333333    0.9363001815858895    0.2208228184469603 F F F Se
   0.9166666666666666    0.2696335149192229    0.2208228184469603 F F F Se
   0.9166666666666666    0.6029668482525562    0.2208228184469603 F F F Se
   0.9166666666666665    0.9363001815858895    0.2208228184469603 F F F Se
   0.2500000000000000    0.2302607680244491    0.1493780825822256 F F F Se
   0.2500000000000000    0.5635941013577824    0.1493780825822256 F F F Se
   0.2500000000000000    0.8969274346911157    0.1493780825822256 F F F Se
   0.5833333333333334    0.2302607680244491    0.1493780825822256 F F F Se
   0.5833333333333334    0.5635941013577824    0.1493780825822256 F F F Se
   0.5833333333333333    0.8969274346911157    0.1493780825822256 F F F Se
   0.9166666666666666    0.2302607680244491    0.1493780825822256 F F F Se
   0.9166666666666667    0.5635941013577824    0.1493780825822256 F F F Se
   0.9166666666666665    0.8969274346911157    0.1493780825822256 F F F Se
   0.0833333333333333    0.1030437165618467    0.2077755584350489 F F F Se
   0.0833333333333333    0.4363770498951799    0.2077755584350489 F F F Se
   0.0833333333333333    0.7697103832285133    0.2077755584350489 F F F Se
   0.4166666666666666    0.1030437165618467    0.2077755584350489 F F F Se
   0.4166666666666666    0.4363770498951799    0.2077755584350489 F F F Se
   0.4166666666666666    0.7697103832285133    0.2077755584350489 F F F Se
   0.7500000000000001    0.1030437165618467    0.2077755584350489 F F F Se
   0.7500000000000000    0.4363770498951799    0.2077755584350489 F F F Se
   0.7500000000000001    0.7697103832285133    0.2077755584350489 F F F Se