k-point density of [50, 50, 50]/[a, b, c]
0
Gamma
4.0 4.0 1.0
