Sb108 Te162
1.0
  12.9919379849300114    0.0000000000000000    0.0000000000000009
  -6.4959688720146929   11.2513484088834179    0.0000000000000009
   0.0000000000000000    0.0000000000000000  125.3492051358959998
Sb Te
108 162
Selective dynamics
direct
   0.1111110000000011    0.2222223333333323    0.2241970691619835 F F F Sb
   0.1111110000000011    0.5555556666666656    0.2241970691619835 F F F Sb
   0.1111110000000011    0.8888889999999989    0.2241970691619835 F F F Sb
   0.4444443333333344    0.2222223333333323    0.2241970691619835 F F F Sb
   0.4444443333333344    0.5555556666666656    0.2241970691619835 F F F Sb
   0.4444443333333345    0.8888889999999989    0.2241970691619835 F F F Sb
   0.7777776666666678    0.2222223333333323    0.2241970691619835 F F F Sb
   0.7777776666666678    0.5555556666666656    0.2241970691619835 F F F Sb
   0.7777776666666678    0.8888889999999989    0.2241970691619835 F F F Sb
   0.1111110000000011    0.2222223333333323    0.0258185694064750 F F F Sb
   0.1111110000000011    0.5555556666666656    0.0258185694064750 F F F Sb
   0.1111110000000011    0.8888889999999989    0.0258185694064750 F F F Sb
   0.4444443333333344    0.2222223333333323    0.0258185694064750 F F F Sb
   0.4444443333333344    0.5555556666666656    0.0258185694064750 F F F Sb
   0.4444443333333345    0.8888889999999989    0.0258185694064750 F F F Sb
   0.7777776666666678    0.2222223333333323    0.0258185694064750 F F F Sb
   0.7777776666666678    0.5555556666666656    0.0258185694064750 F F F Sb
   0.7777776666666678    0.8888889999999989    0.0258185694064750 F F F Sb
   0.0000000000000000    0.0000000000000000    0.0575242165180653 F F F Sb
   0.0000000000000000    0.3333333333333333    0.0575242165180653 F F F Sb
   0.0000000000000001    0.6666666666666666    0.0575242165180653 F F F Sb
   0.3333333333333334    0.0000000000000000    0.0575242165180653 F F F Sb
   0.3333333333333334    0.3333333333333333    0.0575242165180653 F F F Sb
   0.3333333333333334    0.6666666666666666    0.0575242165180653 F F F Sb
   0.6666666666666667    0.0000000000000000    0.0575242165180653 F F F Sb
   0.6666666666666667    0.3333333333333333    0.0575242165180653 F F F Sb
   0.6666666666666667    0.6666666666666666    0.0575242165180653 F F F Sb
   0.0000000000000000    0.0000000000000000    0.1091252091844897 F F F Sb
   0.0000000000000000    0.3333333333333333    0.1091252091844897 F F F Sb
   0.0000000000000001    0.6666666666666666    0.1091252091844897 F F F Sb
   0.3333333333333334    0.0000000000000000    0.1091252091844897 F F F Sb
   0.3333333333333334    0.3333333333333333    0.1091252091844897 F F F Sb
   0.3333333333333334    0.6666666666666666    0.1091252091844897 F F F Sb
   0.6666666666666667    0.0000000000000000    0.1091252091844897 F F F Sb
   0.6666666666666667    0.3333333333333333    0.1091252091844897 F F F Sb
   0.6666666666666667    0.6666666666666666    0.1091252091844897 F F F Sb
   0.2222223333333323    0.1111110000000011    0.1408576925517517 F F F Sb
   0.2222223333333323    0.4444443333333344    0.1408576925517517 F F F Sb
   0.2222223333333323    0.7777776666666676    0.1408576925517517 F F F Sb
   0.5555556666666657    0.1111110000000011    0.1408576925517517 F F F Sb
   0.5555556666666657    0.4444443333333344    0.1408576925517517 F F F Sb
   0.5555556666666656    0.7777776666666676    0.1408576925517517 F F F Sb
   0.8888889999999990    0.1111110000000011    0.1408576925517517 F F F Sb
   0.8888889999999989    0.4444443333333344    0.1408576925517517 F F F Sb
   0.8888889999999990    0.7777776666666676    0.1408576925517517 F F F Sb
   0.2222223333333323    0.1111110000000011    0.1924635222706297 F F F Sb
   0.2222223333333323    0.4444443333333344    0.1924635222706297 F F F Sb
   0.2222223333333323    0.7777776666666676    0.1924635222706297 F F F Sb
   0.5555556666666657    0.1111110000000011    0.1924635222706297 F F F Sb
   0.5555556666666657    0.4444443333333344    0.1924635222706297 F F F Sb
   0.5555556666666656    0.7777776666666676    0.1924635222706297 F F F Sb
   0.8888889999999990    0.1111110000000011    0.1924635222706297 F F F Sb
   0.8888889999999989    0.4444443333333344    0.1924635222706297 F F F Sb
   0.8888889999999990    0.7777776666666676    0.1924635222706297 F F F Sb
   0.1111110000000011    0.2222223333333323    0.4741816805935244 T T T Sb
   0.1111110000000011    0.5555556666666656    0.4741816805935244 T T T Sb
   0.1111110000000011    0.8888889999999989    0.4741816805935244 T T T Sb
   0.4444443333333344    0.2222223333333323    0.4741816805935244 T T T Sb
   0.4444443333333344    0.5555556666666656    0.4741816805935244 T T T Sb
   0.4444443333333345    0.8888889999999989    0.4741816805935244 T T T Sb
   0.7777776666666678    0.2222223333333323    0.4741816805935244 T T T Sb
   0.7777776666666678    0.5555556666666656    0.4741816805935244 T T T Sb
   0.7777776666666678    0.8888889999999989    0.4741816805935244 T T T Sb
   0.1111110000000011    0.2222223333333323    0.2758031808380158 F F F Sb
   0.1111110000000011    0.5555556666666656    0.2758031808380158 F F F Sb
   0.1111110000000011    0.8888889999999989    0.2758031808380158 F F F Sb
   0.4444443333333344    0.2222223333333323    0.2758031808380158 F F F Sb
   0.4444443333333344    0.5555556666666656    0.2758031808380158 F F F Sb
   0.4444443333333345    0.8888889999999989    0.2758031808380158 F F F Sb
   0.7777776666666678    0.2222223333333323    0.2758031808380158 F F F Sb
   0.7777776666666678    0.5555556666666656    0.2758031808380158 F F F Sb
   0.7777776666666678    0.8888889999999989    0.2758031808380158 F F F Sb
   0.0000000000000000    0.0000000000000000    0.3075364777293632 F F F Sb
   0.0000000000000000    0.3333333333333333    0.3075364777293632 F F F Sb
   0.0000000000000001    0.6666666666666666    0.3075364777293632 F F F Sb
   0.3333333333333334    0.0000000000000000    0.3075364777293632 F F F Sb
   0.3333333333333334    0.3333333333333333    0.3075364777293632 F F F Sb
   0.3333333333333334    0.6666666666666666    0.3075364777293632 F F F Sb
   0.6666666666666667    0.0000000000000000    0.3075364777293632 F F F Sb
   0.6666666666666667    0.3333333333333333    0.3075364777293632 F F F Sb
   0.6666666666666667    0.6666666666666666    0.3075364777293632 F F F Sb
   0.0000000000000000    0.0000000000000000    0.3591423074482484 T T T Sb
   0.0000000000000000    0.3333333333333333    0.3591423074482484 T T T Sb
   0.0000000000000001    0.6666666666666666    0.3591423074482484 T T T Sb
   0.3333333333333334    0.0000000000000000    0.3591423074482484 T T T Sb
   0.3333333333333334    0.3333333333333333    0.3591423074482484 T T T Sb
   0.3333333333333334    0.6666666666666666    0.3591423074482484 T T T Sb
   0.6666666666666667    0.0000000000000000    0.3591423074482484 T T T Sb
   0.6666666666666667    0.3333333333333333    0.3591423074482484 T T T Sb
   0.6666666666666667    0.6666666666666666    0.3591423074482484 T T T Sb
   0.2222223333333323    0.1111110000000011    0.3908747908155102 T T T Sb
   0.2222223333333323    0.4444443333333344    0.3908747908155102 T T T Sb
   0.2222223333333323    0.7777776666666676    0.3908747908155102 T T T Sb
   0.5555556666666657    0.1111110000000011    0.3908747908155102 T T T Sb
   0.5555556666666657    0.4444443333333344    0.3908747908155102 T T T Sb
   0.5555556666666656    0.7777776666666676    0.3908747908155102 T T T Sb
   0.8888889999999990    0.1111110000000011    0.3908747908155102 T T T Sb
   0.8888889999999989    0.4444443333333344    0.3908747908155102 T T T Sb
   0.8888889999999990    0.7777776666666676    0.3908747908155102 T T T Sb
   0.2222223333333323    0.1111110000000011    0.4424757834819277 T T T Sb
   0.2222223333333323    0.4444443333333344    0.4424757834819277 T T T Sb
   0.2222223333333323    0.7777776666666676    0.4424757834819277 T T T Sb
   0.5555556666666657    0.1111110000000011    0.4424757834819277 T T T Sb
   0.5555556666666657    0.4444443333333344    0.4424757834819277 T T T Sb
   0.5555556666666656    0.7777776666666676    0.4424757834819277 T T T Sb
   0.8888889999999990    0.1111110000000011    0.4424757834819277 T T T Sb
   0.8888889999999989    0.4444443333333344    0.4424757834819277 T T T Sb
   0.8888889999999990    0.7777776666666676    0.4424757834819277 T T T Sb
   0.0000000000000000    0.0000000000000000    0.0122960043984349 F F F Te
   0.0000000000000000    0.3333333333333333    0.0122960043984349 F F F Te
   0.0000000000000001    0.6666666666666666    0.0122960043984349 F F F Te
   0.3333333333333334    0.0000000000000000    0.0122960043984349 F F F Te
   0.3333333333333334    0.3333333333333333    0.0122960043984349 F F F Te
   0.3333333333333334    0.6666666666666666    0.0122960043984349 F F F Te
   0.6666666666666667    0.0000000000000000    0.0122960043984349 F F F Te
   0.6666666666666667    0.3333333333333333    0.0122960043984349 F F F Te
   0.6666666666666667    0.6666666666666666    0.0122960043984349 F F F Te
   0.2222223333333323    0.1111110000000011    0.2378288141125164 F F F Te
   0.2222223333333323    0.4444443333333344    0.2378288141125164 F F F Te
   0.2222223333333323    0.7777776666666676    0.2378288141125164 F F F Te
   0.5555556666666657    0.1111110000000011    0.2378288141125164 F F F Te
   0.5555556666666657    0.4444443333333344    0.2378288141125164 F F F Te
   0.5555556666666656    0.7777776666666676    0.2378288141125164 F F F Te
   0.8888889999999990    0.1111110000000011    0.2378288141125164 F F F Te
   0.8888889999999989    0.4444443333333344    0.2378288141125164 F F F Te
   0.8888889999999990    0.7777776666666676    0.2378288141125164 F F F Te
   0.0000000000000000    0.0000000000000000    0.2083387096812130 F F F Te
   0.0000000000000000    0.3333333333333333    0.2083387096812130 F F F Te
   0.0000000000000001    0.6666666666666666    0.2083387096812130 F F F Te
   0.3333333333333334    0.0000000000000000    0.2083387096812130 F F F Te
   0.3333333333333334    0.3333333333333333    0.2083387096812130 F F F Te
   0.3333333333333334    0.6666666666666666    0.2083387096812130 F F F Te
   0.6666666666666667    0.0000000000000000    0.2083387096812130 F F F Te
   0.6666666666666667    0.3333333333333333    0.2083387096812130 F F F Te
   0.6666666666666667    0.6666666666666666    0.2083387096812130 F F F Te
   0.2222223333333323    0.1111110000000011    0.0955088192209316 F F F Te
   0.2222223333333323    0.4444443333333344    0.0955088192209316 F F F Te
   0.2222223333333323    0.7777776666666676    0.0955088192209316 F F F Te
   0.5555556666666657    0.1111110000000011    0.0955088192209316 F F F Te
   0.5555556666666657    0.4444443333333344    0.0955088192209316 F F F Te
   0.5555556666666656    0.7777776666666676    0.0955088192209316 F F F Te
   0.8888889999999990    0.1111110000000011    0.0955088192209316 F F F Te
   0.8888889999999989    0.4444443333333344    0.0955088192209316 F F F Te
   0.8888889999999990    0.7777776666666676    0.0955088192209316 F F F Te
   0.1111110000000011    0.2222223333333323    0.0711679230202304 F F F Te
   0.1111110000000011    0.5555556666666656    0.0711679230202304 F F F Te
   0.1111110000000011    0.8888889999999989    0.0711679230202304 F F F Te
   0.4444443333333344    0.2222223333333323    0.0711679230202304 F F F Te
   0.4444443333333344    0.5555556666666656    0.0711679230202304 F F F Te
   0.4444443333333345    0.8888889999999989    0.0711679230202304 F F F Te
   0.7777776666666678    0.2222223333333323    0.0711679230202304 F F F Te
   0.7777776666666678    0.5555556666666656    0.0711679230202304 F F F Te
   0.7777776666666678    0.8888889999999989    0.0711679230202304 F F F Te
   0.2222223333333323    0.1111110000000011    0.0416775179593370 F F F Te
   0.2222223333333323    0.4444443333333344    0.0416775179593370 F F F Te
   0.2222223333333323    0.7777776666666676    0.0416775179593370 F F F Te
   0.5555556666666657    0.1111110000000011    0.0416775179593370 F F F Te
   0.5555556666666657    0.4444443333333344    0.0416775179593370 F F F Te
   0.5555556666666656    0.7777776666666676    0.0416775179593370 F F F Te
   0.8888889999999990    0.1111110000000011    0.0416775179593370 F F F Te
   0.8888889999999989    0.4444443333333344    0.0416775179593370 F F F Te
   0.8888889999999990    0.7777776666666676    0.0416775179593370 F F F Te
   0.1111110000000011    0.2222223333333323    0.1788384408889476 F F F Te
   0.1111110000000011    0.5555556666666656    0.1788384408889476 F F F Te
   0.1111110000000011    0.8888889999999989    0.1788384408889476 F F F Te
   0.4444443333333344    0.2222223333333323    0.1788384408889476 F F F Te
   0.4444443333333344    0.5555556666666656    0.1788384408889476 F F F Te
   0.4444443333333345    0.8888889999999989    0.1788384408889476 F F F Te
   0.7777776666666678    0.2222223333333323    0.1788384408889476 F F F Te
   0.7777776666666678    0.5555556666666656    0.1788384408889476 F F F Te
   0.7777776666666678    0.8888889999999989    0.1788384408889476 F F F Te
   0.0000000000000000    0.0000000000000000    0.1544958673828047 F F F Te
   0.0000000000000000    0.3333333333333333    0.1544958673828047 F F F Te
   0.0000000000000001    0.6666666666666666    0.1544958673828047 F F F Te
   0.3333333333333334    0.0000000000000000    0.1544958673828047 F F F Te
   0.3333333333333334    0.3333333333333333    0.1544958673828047 F F F Te
   0.3333333333333334    0.6666666666666666    0.1544958673828047 F F F Te
   0.6666666666666667    0.0000000000000000    0.1544958673828047 F F F Te
   0.6666666666666667    0.3333333333333333    0.1544958673828047 F F F Te
   0.6666666666666667    0.6666666666666666    0.1544958673828047 F F F Te
   0.1111110000000011    0.2222223333333323    0.1250164112985548 F F F Te
   0.1111110000000011    0.5555556666666656    0.1250164112985548 F F F Te
   0.1111110000000011    0.8888889999999989    0.1250164112985548 F F F Te
   0.4444443333333344    0.2222223333333323    0.1250164112985548 F F F Te
   0.4444443333333344    0.5555556666666656    0.1250164112985548 F F F Te
   0.4444443333333345    0.8888889999999989    0.1250164112985548 F F F Te
   0.7777776666666678    0.2222223333333323    0.1250164112985548 F F F Te
   0.7777776666666678    0.5555556666666656    0.1250164112985548 F F F Te
   0.7777776666666678    0.8888889999999989    0.1250164112985548 F F F Te
   0.0000000000000000    0.0000000000000000    0.2621711858874837 F F F Te
   0.0000000000000000    0.3333333333333333    0.2621711858874837 F F F Te
   0.0000000000000001    0.6666666666666666    0.2621711858874837 F F F Te
   0.3333333333333334    0.0000000000000000    0.2621711858874837 F F F Te
   0.3333333333333334    0.3333333333333333    0.2621711858874837 F F F Te
   0.3333333333333334    0.6666666666666666    0.2621711858874837 F F F Te
   0.6666666666666667    0.0000000000000000    0.2621711858874837 F F F Te
   0.6666666666666667    0.3333333333333333    0.2621711858874837 F F F Te
   0.6666666666666667    0.6666666666666666    0.2621711858874837 F F F Te
   0.2222223333333323    0.1111110000000011    0.4877039956015650 T T T Te
   0.2222223333333323    0.4444443333333344    0.4877039956015650 T T T Te
   0.2222223333333323    0.7777776666666676    0.4877039956015650 T T T Te
   0.5555556666666657    0.1111110000000011    0.4877039956015650 T T T Te
   0.5555556666666657    0.4444443333333344    0.4877039956015650 T T T Te
   0.5555556666666656    0.7777776666666676    0.4877039956015650 T T T Te
   0.8888889999999990    0.1111110000000011    0.4877039956015650 T T T Te
   0.8888889999999989    0.4444443333333344    0.4877039956015650 T T T Te
   0.8888889999999990    0.7777776666666676    0.4877039956015650 T T T Te
   0.0000000000000000    0.0000000000000000    0.4583224820406631 T T T Te
   0.0000000000000000    0.3333333333333333    0.4583224820406631 T T T Te
   0.0000000000000001    0.6666666666666666    0.4583224820406631 T T T Te
   0.3333333333333334    0.0000000000000000    0.4583224820406631 T T T Te
   0.3333333333333334    0.3333333333333333    0.4583224820406631 T T T Te
   0.3333333333333334    0.6666666666666666    0.4583224820406631 T T T Te
   0.6666666666666667    0.0000000000000000    0.4583224820406631 T T T Te
   0.6666666666666667    0.3333333333333333    0.4583224820406631 T T T Te
   0.6666666666666667    0.6666666666666666    0.4583224820406631 T T T Te
   0.2222223333333323    0.1111110000000011    0.3455041326171954 T T T Te
   0.2222223333333323    0.4444443333333344    0.3455041326171954 T T T Te
   0.2222223333333323    0.7777776666666676    0.3455041326171954 T T T Te
   0.5555556666666657    0.1111110000000011    0.3455041326171954 T T T Te
   0.5555556666666657    0.4444443333333344    0.3455041326171954 T T T Te
   0.5555556666666656    0.7777776666666676    0.3455041326171954 T T T Te
   0.8888889999999990    0.1111110000000011    0.3455041326171954 T T T Te
   0.8888889999999989    0.4444443333333344    0.3455041326171954 T T T Te
   0.8888889999999990    0.7777776666666676    0.3455041326171954 T T T Te
   0.1111110000000011    0.2222223333333323    0.3211618091110519 T T T Te
   0.1111110000000011    0.5555556666666656    0.3211618091110519 T T T Te
   0.1111110000000011    0.8888889999999989    0.3211618091110519 T T T Te
   0.4444443333333344    0.2222223333333323    0.3211618091110519 T T T Te
   0.4444443333333344    0.5555556666666656    0.3211618091110519 T T T Te
   0.4444443333333345    0.8888889999999989    0.3211618091110519 T T T Te
   0.7777776666666678    0.2222223333333323    0.3211618091110519 T T T Te
   0.7777776666666678    0.5555556666666656    0.3211618091110519 T T T Te
   0.7777776666666678    0.8888889999999989    0.3211618091110519 T T T Te
   0.2222223333333323    0.1111110000000011    0.2916612903187870 F F F Te
   0.2222223333333323    0.4444443333333344    0.2916612903187870 F F F Te
   0.2222223333333323    0.7777776666666676    0.2916612903187870 F F F Te
   0.5555556666666657    0.1111110000000011    0.2916612903187870 F F F Te
   0.5555556666666657    0.4444443333333344    0.2916612903187870 F F F Te
   0.5555556666666656    0.7777776666666676    0.2916612903187870 F F F Te
   0.8888889999999990    0.1111110000000011    0.2916612903187870 F F F Te
   0.8888889999999989    0.4444443333333344    0.2916612903187870 F F F Te
   0.8888889999999990    0.7777776666666676    0.2916612903187870 F F F Te
   0.1111110000000011    0.2222223333333323    0.4288323269797690 T T T Te
   0.1111110000000011    0.5555556666666656    0.4288323269797690 T T T Te
   0.1111110000000011    0.8888889999999989    0.4288323269797690 T T T Te
   0.4444443333333344    0.2222223333333323    0.4288323269797690 T T T Te
   0.4444443333333344    0.5555556666666656    0.4288323269797690 T T T Te
   0.4444443333333345    0.8888889999999989    0.4288323269797690 T T T Te
   0.7777776666666678    0.2222223333333323    0.4288323269797690 T T T Te
   0.7777776666666678    0.5555556666666656    0.4288323269797690 T T T Te
   0.7777776666666678    0.8888889999999989    0.4288323269797690 T T T Te
   0.0000000000000000    0.0000000000000000    0.4044911807790684 T T T Te
   0.0000000000000000    0.3333333333333333    0.4044911807790684 T T T Te
   0.0000000000000001    0.6666666666666666    0.4044911807790684 T T T Te
   0.3333333333333334    0.0000000000000000    0.4044911807790684 T T T Te
   0.3333333333333334    0.3333333333333333    0.4044911807790684 T T T Te
   0.3333333333333334    0.6666666666666666    0.4044911807790684 T T T Te
   0.6666666666666667    0.0000000000000000    0.4044911807790684 T T T Te
   0.6666666666666667    0.3333333333333333    0.4044911807790684 T T T Te
   0.6666666666666667    0.6666666666666666    0.4044911807790684 T T T Te
   0.1111110000000011    0.2222223333333323    0.3749838387014446 T T T Te
   0.1111110000000011    0.5555556666666656    0.3749838387014446 T T T Te
   0.1111110000000011    0.8888889999999989    0.3749838387014446 T T T Te
   0.4444443333333344    0.2222223333333323    0.3749838387014446 T T T Te
   0.4444443333333344    0.5555556666666656    0.3749838387014446 T T T Te
   0.4444443333333345    0.8888889999999989    0.3749838387014446 T T T Te
   0.7777776666666678    0.2222223333333323    0.3749838387014446 T T T Te
   0.7777776666666678    0.5555556666666656    0.3749838387014446 T T T Te
   0.7777776666666678    0.8888889999999989    0.3749838387014446 T T T Te
