Bi6 Se9
1.0
   2.0956832629406277   -3.6298298879848936    0.0000000000000000
   2.0956832629406277    3.6298298879848936    0.0000000000000000
   0.0000000000000000    0.0000000000000000   29.9286872022096198
Bi Se
6 9
direct
   0.6666666666666666    0.3333333333333333    0.7317683333333331 Bi
   0.6666666666666667    0.3333333333333333    0.9348983333333335 Bi
   0.3333333333333333    0.6666666666666666    0.0651016666666664 Bi
   0.3333333333333335    0.6666666666666666    0.2682316666666669 Bi
   0.0000000000000000    0.0000000000000000    0.3984349999999997 Bi
   0.0000000000000000    0.0000000000000000    0.6015650000000001 Bi
   0.0000000000000000    0.0000000000000000    0.0000000000000000 Se
   0.3333333333333333    0.6666666666666666    0.8823816666666666 Se
   0.0000000000000000    0.0000000000000000    0.7842850000000000 Se
   0.6666666666666666    0.3333333333333333    0.3333333333333333 Se
   0.0000000000000000    0.0000000000000000    0.2157149999999999 Se
   0.6666666666666666    0.3333333333333333    0.1176183333333334 Se
   0.3333333333333333    0.6666666666666666    0.6666666666666666 Se
   0.6666666666666666    0.3333333333333333    0.5490483333333334 Se
   0.3333333333333333    0.6666666666666666    0.4509516666666666 Se
