Sb8 Se12
1.0
   4.0015568699999999    0.0000000000000000    0.0000000000000002
   0.0000000000000019   11.7136297099999993    0.0000000000000007
   0.0000000000000000    0.0000000000000000   12.3620731999999993
Sb Se
8 12
direct
   0.7500000000000000    0.0380946000000000    0.1403223700000000 Sb
   0.2500000000000000    0.9619054000000000    0.8596776300000000 Sb
   0.2500000000000000    0.5380946000000000    0.3596776300000000 Sb
   0.7500000000000000    0.4619054000000000    0.6403223700000000 Sb
   0.2500000000000000    0.3295913800000000    0.0338128400000000 Sb
   0.7500000000000000    0.6704086200000000    0.9661871600000000 Sb
   0.7500000000000000    0.8295913800000000    0.4661871600000000 Sb
   0.2500000000000000    0.1704086200000000    0.5338128400000000 Sb
   0.7500000000000000    0.1275253600000000    0.9483452000000000 Se
   0.2500000000000000    0.8724746400000000    0.0516548000000000 Se
   0.2500000000000000    0.6275253600000000    0.5516548000000000 Se
   0.7500000000000000    0.3724746400000000    0.4483451999999999 Se
   0.2500000000000000    0.1921006700000000    0.2053313200000000 Se
   0.7500000000000000    0.8078993300000000    0.7946686800000000 Se
   0.7500000000000000    0.6921006700000000    0.2946686800000000 Se
   0.2500000000000000    0.3078993300000000    0.7053313200000000 Se
   0.7500000000000000    0.0540986900000000    0.6273491500000000 Se
   0.2500000000000000    0.9459013100000000    0.3726508500000000 Se
   0.2500000000000000    0.5540986900000000    0.8726508500000000 Se
   0.7500000000000000    0.4459013100000000    0.1273491500000001 Se
