k-point density of [50, 50, 50]/[a, b, c]
0
Gamma
12.0 12.0 2.0
