Sb6 Te9
1.0
   2.1519589827737255   -3.7273022939683309    0.0000000000000000
   2.1519589827737255    3.7273022939683309    0.0000000000000000
   0.0000000000000000    0.0000000000000000   31.7774153027498478
Sb Te
6 9
direct
   0.3333333333333333    0.6666666666666666    0.2708694366666668 Sb
   0.3333333333333333    0.6666666666666667    0.0624638966666665 Sb
   0.0000000000000000    0.0000000000000000    0.6042027700000001 Sb
   0.0000000000000000    0.0000000000000000    0.3957972299999998 Sb
   0.6666666666666666    0.3333333333333333    0.9375361033333334 Sb
   0.6666666666666666    0.3333333333333335    0.7291305633333331 Sb
   0.6666666666666666    0.3333333333333333    0.1158795433333334 Te
   0.0000000000000000    0.0000000000000000    0.2174537899999999 Te
   0.0000000000000000    0.0000000000000000    0.0000000000000000 Te
   0.3333333333333333    0.6666666666666666    0.4492128766666668 Te
   0.6666666666666666    0.3333333333333333    0.5507871233333332 Te
   0.6666666666666666    0.3333333333333333    0.3333333333333333 Te
   0.0000000000000000    0.0000000000000000    0.7825462100000000 Te
   0.3333333333333333    0.6666666666666666    0.8841204566666665 Te
   0.3333333333333333    0.6666666666666666    0.6666666666666666 Te
