ADDGRID = .TRUE.
EDIFF = 1.0E-07
EDIFFG = -1.0E-06
ENCUT = 520
IALGO = 48
IBRION = 2
ICHARG = 2
ISIF = 3
ISMEAR = 0
ISPIN = 1
ISTART = 0
LREAL = Auto
NELM = 60
NELMDL = 10
NELMIN = 3
NSW = 25
PREC = Accurate
SIGMA = 0.10
System = AutoVASP High Precision Bulk Relaxation
VOSKOWN = 1
