Bi6 Te9
1.0
   2.2090652234007724   -3.8262132041636301    0.0000000000000000
   2.2090652234007724    3.8262132041636301    0.0000000000000000
   0.0000000000000000    0.0000000000000000   32.2572990392103520
Bi Te
6 9
direct
   0.3333333333333333    0.6666666666666666    0.2698368966666668 Bi
   0.3333333333333333    0.6666666666666667    0.0634964366666665 Bi
   0.0000000000000000    0.0000000000000000    0.6031702300000001 Bi
   0.0000000000000000    0.0000000000000000    0.3968297699999999 Bi
   0.6666666666666666    0.3333333333333333    0.9365035633333334 Bi
   0.6666666666666666    0.3333333333333335    0.7301631033333331 Bi
   0.6666666666666666    0.3333333333333333    0.1165255933333336 Te
   0.0000000000000000    0.0000000000000000    0.0000000000000000 Te
   0.0000000000000000    0.0000000000000000    0.2168077399999997 Te
   0.3333333333333333    0.6666666666666666    0.4498589266666669 Te
   0.6666666666666666    0.3333333333333333    0.3333333333333333 Te
   0.6666666666666666    0.3333333333333333    0.5501410733333331 Te
   0.0000000000000000    0.0000000000000000    0.7831922600000002 Te
   0.3333333333333333    0.6666666666666666    0.6666666666666666 Te
   0.3333333333333333    0.6666666666666666    0.8834744066666664 Te
