Bi108 Te162
1.0
  13.3526519800376970    0.0000000000000000    0.0000000000000009
  -6.6763250178909708   11.5637363838634677    0.0000000000000009
   0.0000000000000000    0.0000000000000000  127.7506424653103494
Bi Te
108 162
Selective dynamics
direct
   0.1111110000000011    0.2222223333333323    0.0256197176098070 F F F Bi
   0.1111110000000011    0.5555556666666657    0.0256197176098070 F F F Bi
   0.1111110000000011    0.8888889999999989    0.0256197176098070 F F F Bi
   0.4444443333333344    0.2222223333333323    0.0256197176098070 F F F Bi
   0.4444443333333344    0.5555556666666657    0.0256197176098070 F F F Bi
   0.4444443333333344    0.8888889999999989    0.0256197176098070 F F F Bi
   0.7777776666666678    0.2222223333333323    0.0256197176098070 F F F Bi
   0.7777776666666678    0.5555556666666657    0.0256197176098070 F F F Bi
   0.7777776666666678    0.8888889999999989    0.0256197176098070 F F F Bi
   0.1111110000000011    0.2222223333333323    0.2244006221239206 F F F Bi
   0.1111110000000011    0.5555556666666657    0.2244006221239206 F F F Bi
   0.1111110000000011    0.8888889999999989    0.2244006221239206 F F F Bi
   0.4444443333333344    0.2222223333333323    0.2244006221239206 F F F Bi
   0.4444443333333344    0.5555556666666657    0.2244006221239206 F F F Bi
   0.4444443333333344    0.8888889999999989    0.2244006221239206 F F F Bi
   0.7777776666666678    0.2222223333333323    0.2244006221239206 F F F Bi
   0.7777776666666678    0.5555556666666657    0.2244006221239206 F F F Bi
   0.7777776666666678    0.8888889999999989    0.2244006221239206 F F F Bi
   0.0000000000000000    0.0000000000000000    0.1089238925870915 F F F Bi
   0.0000000000000000    0.3333333333333333    0.1089238925870915 F F F Bi
   0.0000000000000000    0.6666666666666666    0.1089238925870915 F F F Bi
   0.3333333333333334    0.0000000000000000    0.1089238925870915 F F F Bi
   0.3333333333333334    0.3333333333333333    0.1089238925870915 F F F Bi
   0.3333333333333333    0.6666666666666666    0.1089238925870915 F F F Bi
   0.6666666666666667    0.0000000000000000    0.1089238925870915 F F F Bi
   0.6666666666666666    0.3333333333333333    0.1089238925870915 F F F Bi
   0.6666666666666667    0.6666666666666666    0.1089238925870915 F F F Bi
   0.0000000000000000    0.0000000000000000    0.0577304770188842 F F F Bi
   0.0000000000000000    0.3333333333333333    0.0577304770188842 F F F Bi
   0.0000000000000000    0.6666666666666666    0.0577304770188842 F F F Bi
   0.3333333333333334    0.0000000000000000    0.0577304770188842 F F F Bi
   0.3333333333333334    0.3333333333333333    0.0577304770188842 F F F Bi
   0.3333333333333333    0.6666666666666666    0.0577304770188842 F F F Bi
   0.6666666666666667    0.0000000000000000    0.0577304770188842 F F F Bi
   0.6666666666666666    0.3333333333333333    0.0577304770188842 F F F Bi
   0.6666666666666667    0.6666666666666666    0.0577304770188842 F F F Bi
   0.2222223333333322    0.1111110000000011    0.1922639494030000 F F F Bi
   0.2222223333333322    0.4444443333333344    0.1922639494030000 F F F Bi
   0.2222223333333323    0.7777776666666678    0.1922639494030000 F F F Bi
   0.5555556666666657    0.1111110000000011    0.1922639494030000 F F F Bi
   0.5555556666666656    0.4444443333333344    0.1922639494030000 F F F Bi
   0.5555556666666657    0.7777776666666678    0.1922639494030000 F F F Bi
   0.8888889999999990    0.1111110000000011    0.1922639494030000 F F F Bi
   0.8888889999999989    0.4444443333333344    0.1922639494030000 F F F Bi
   0.8888889999999989    0.7777776666666678    0.1922639494030000 F F F Bi
   0.2222223333333322    0.1111110000000011    0.1410625941286644 F F F Bi
   0.2222223333333322    0.4444443333333344    0.1410625941286644 F F F Bi
   0.2222223333333323    0.7777776666666678    0.1410625941286644 F F F Bi
   0.5555556666666657    0.1111110000000011    0.1410625941286644 F F F Bi
   0.5555556666666656    0.4444443333333344    0.1410625941286644 F F F Bi
   0.5555556666666657    0.7777776666666678    0.1410625941286644 F F F Bi
   0.8888889999999990    0.1111110000000011    0.1410625941286644 F F F Bi
   0.8888889999999989    0.4444443333333344    0.1410625941286644 F F F Bi
   0.8888889999999989    0.7777776666666678    0.1410625941286644 F F F Bi
   0.1111110000000011    0.2222223333333323    0.2756010040334235 F F F Bi
   0.1111110000000011    0.5555556666666657    0.2756010040334235 F F F Bi
   0.1111110000000011    0.8888889999999989    0.2756010040334235 F F F Bi
   0.4444443333333344    0.2222223333333323    0.2756010040334235 F F F Bi
   0.4444443333333344    0.5555556666666657    0.2756010040334235 F F F Bi
   0.4444443333333344    0.8888889999999989    0.2756010040334235 F F F Bi
   0.7777776666666678    0.2222223333333323    0.2756010040334235 F F F Bi
   0.7777776666666678    0.5555556666666657    0.2756010040334235 F F F Bi
   0.7777776666666678    0.8888889999999989    0.2756010040334235 F F F Bi
   0.1111110000000011    0.2222223333333323    0.4744449687678268 T T T Bi
   0.1111110000000011    0.5555556666666657    0.4744449687678268 T T T Bi
   0.1111110000000011    0.8888889999999989    0.4744449687678268 T T T Bi
   0.4444443333333344    0.2222223333333323    0.4744449687678268 T T T Bi
   0.4444443333333344    0.5555556666666657    0.4744449687678268 T T T Bi
   0.4444443333333344    0.8888889999999989    0.4744449687678268 T T T Bi
   0.7777776666666678    0.2222223333333323    0.4744449687678268 T T T Bi
   0.7777776666666678    0.5555556666666657    0.4744449687678268 T T T Bi
   0.7777776666666678    0.8888889999999989    0.4744449687678268 T T T Bi
   0.0000000000000000    0.0000000000000000    0.3589529676098095 T T T Bi
   0.0000000000000000    0.3333333333333333    0.3589529676098095 T T T Bi
   0.0000000000000000    0.6666666666666666    0.3589529676098095 T T T Bi
   0.3333333333333334    0.0000000000000000    0.3589529676098095 T T T Bi
   0.3333333333333334    0.3333333333333333    0.3589529676098095 T T T Bi
   0.3333333333333333    0.6666666666666666    0.3589529676098095 T T T Bi
   0.6666666666666667    0.0000000000000000    0.3589529676098095 T T T Bi
   0.6666666666666666    0.3333333333333333    0.3589529676098095 T T T Bi
   0.6666666666666667    0.6666666666666666    0.3589529676098095 T T T Bi
   0.0000000000000000    0.0000000000000000    0.3077403376006975 F F F Bi
   0.0000000000000000    0.3333333333333333    0.3077403376006975 F F F Bi
   0.0000000000000000    0.6666666666666666    0.3077403376006975 F F F Bi
   0.3333333333333334    0.0000000000000000    0.3077403376006975 F F F Bi
   0.3333333333333334    0.3333333333333333    0.3077403376006975 F F F Bi
   0.3333333333333333    0.6666666666666666    0.3077403376006975 F F F Bi
   0.6666666666666667    0.0000000000000000    0.3077403376006975 F F F Bi
   0.6666666666666666    0.3333333333333333    0.3077403376006975 F F F Bi
   0.6666666666666667    0.6666666666666666    0.3077403376006975 F F F Bi
   0.2222223333333322    0.1111110000000011    0.4422790012624554 T T T Bi
   0.2222223333333322    0.4444443333333344    0.4422790012624554 T T T Bi
   0.2222223333333323    0.7777776666666678    0.4422790012624554 T T T Bi
   0.5555556666666657    0.1111110000000011    0.4422790012624554 T T T Bi
   0.5555556666666656    0.4444443333333344    0.4422790012624554 T T T Bi
   0.5555556666666657    0.7777776666666678    0.4422790012624554 T T T Bi
   0.8888889999999990    0.1111110000000011    0.4422790012624554 T T T Bi
   0.8888889999999989    0.4444443333333344    0.4422790012624554 T T T Bi
   0.8888889999999989    0.7777776666666678    0.4422790012624554 T T T Bi
   0.2222223333333322    0.1111110000000011    0.3910757866040165 T T T Bi
   0.2222223333333322    0.4444443333333344    0.3910757866040165 T T T Bi
   0.2222223333333323    0.7777776666666678    0.3910757866040165 T T T Bi
   0.5555556666666657    0.1111110000000011    0.3910757866040165 T T T Bi
   0.5555556666666656    0.4444443333333344    0.3910757866040165 T T T Bi
   0.5555556666666657    0.7777776666666678    0.3910757866040165 T T T Bi
   0.8888889999999990    0.1111110000000011    0.3910757866040165 T T T Bi
   0.8888889999999989    0.4444443333333344    0.3910757866040165 T T T Bi
   0.8888889999999989    0.7777776666666678    0.3910757866040165 T T T Bi
   0.2222223333333322    0.1111110000000011    0.2378723264664841 F F F Te
   0.2222223333333322    0.4444443333333344    0.2378723264664841 F F F Te
   0.2222223333333323    0.7777776666666678    0.2378723264664841 F F F Te
   0.5555556666666657    0.1111110000000011    0.2378723264664841 F F F Te
   0.5555556666666656    0.4444443333333344    0.2378723264664841 F F F Te
   0.5555556666666657    0.7777776666666678    0.2378723264664841 F F F Te
   0.8888889999999990    0.1111110000000011    0.2378723264664841 F F F Te
   0.8888889999999989    0.4444443333333344    0.2378723264664841 F F F Te
   0.8888889999999989    0.7777776666666678    0.2378723264664841 F F F Te
   0.0000000000000000    0.0000000000000000    0.2083365869047247 F F F Te
   0.0000000000000000    0.3333333333333333    0.2083365869047247 F F F Te
   0.0000000000000000    0.6666666666666666    0.2083365869047247 F F F Te
   0.3333333333333334    0.0000000000000000    0.2083365869047247 F F F Te
   0.3333333333333334    0.3333333333333333    0.2083365869047247 F F F Te
   0.3333333333333333    0.6666666666666666    0.2083365869047247 F F F Te
   0.6666666666666667    0.0000000000000000    0.2083365869047247 F F F Te
   0.6666666666666666    0.3333333333333333    0.2083365869047247 F F F Te
   0.6666666666666667    0.6666666666666666    0.2083365869047247 F F F Te
   0.0000000000000000    0.0000000000000000    0.0122468867339913 F F F Te
   0.0000000000000000    0.3333333333333333    0.0122468867339913 F F F Te
   0.0000000000000000    0.6666666666666666    0.0122468867339913 F F F Te
   0.3333333333333334    0.0000000000000000    0.0122468867339913 F F F Te
   0.3333333333333334    0.3333333333333333    0.0122468867339913 F F F Te
   0.3333333333333333    0.6666666666666666    0.0122468867339913 F F F Te
   0.6666666666666667    0.0000000000000000    0.0122468867339913 F F F Te
   0.6666666666666666    0.3333333333333333    0.0122468867339913 F F F Te
   0.6666666666666667    0.6666666666666666    0.0122468867339913 F F F Te
   0.1111110000000011    0.2222223333333323    0.0712050513790133 F F F Te
   0.1111110000000011    0.5555556666666657    0.0712050513790133 F F F Te
   0.1111110000000011    0.8888889999999989    0.0712050513790133 F F F Te
   0.4444443333333344    0.2222223333333323    0.0712050513790133 F F F Te
   0.4444443333333344    0.5555556666666657    0.0712050513790133 F F F Te
   0.4444443333333344    0.8888889999999989    0.0712050513790133 F F F Te
   0.7777776666666678    0.2222223333333323    0.0712050513790133 F F F Te
   0.7777776666666678    0.5555556666666657    0.0712050513790133 F F F Te
   0.7777776666666678    0.8888889999999989    0.0712050513790133 F F F Te
   0.2222223333333322    0.1111110000000011    0.0417040934427439 F F F Te
   0.2222223333333322    0.4444443333333344    0.0417040934427439 F F F Te
   0.2222223333333323    0.7777776666666678    0.0417040934427439 F F F Te
   0.5555556666666657    0.1111110000000011    0.0417040934427439 F F F Te
   0.5555556666666656    0.4444443333333344    0.0417040934427439 F F F Te
   0.5555556666666657    0.7777776666666678    0.0417040934427439 F F F Te
   0.8888889999999990    0.1111110000000011    0.0417040934427439 F F F Te
   0.8888889999999989    0.4444443333333344    0.0417040934427439 F F F Te
   0.8888889999999989    0.7777776666666678    0.0417040934427439 F F F Te
   0.2222223333333322    0.1111110000000011    0.0954619499341699 F F F Te
   0.2222223333333322    0.4444443333333344    0.0954619499341699 F F F Te
   0.2222223333333323    0.7777776666666678    0.0954619499341699 F F F Te
   0.5555556666666657    0.1111110000000011    0.0954619499341699 F F F Te
   0.5555556666666656    0.4444443333333344    0.0954619499341699 F F F Te
   0.5555556666666657    0.7777776666666678    0.0954619499341699 F F F Te
   0.8888889999999990    0.1111110000000011    0.0954619499341699 F F F Te
   0.8888889999999989    0.4444443333333344    0.0954619499341699 F F F Te
   0.8888889999999989    0.7777776666666678    0.0954619499341699 F F F Te
   0.0000000000000000    0.0000000000000000    0.1545399964346224 F F F Te
   0.0000000000000000    0.3333333333333333    0.1545399964346224 F F F Te
   0.0000000000000000    0.6666666666666666    0.1545399964346224 F F F Te
   0.3333333333333334    0.0000000000000000    0.1545399964346224 F F F Te
   0.3333333333333334    0.3333333333333333    0.1545399964346224 F F F Te
   0.3333333333333333    0.6666666666666666    0.1545399964346224 F F F Te
   0.6666666666666667    0.0000000000000000    0.1545399964346224 F F F Te
   0.6666666666666666    0.3333333333333333    0.1545399964346224 F F F Te
   0.6666666666666667    0.6666666666666666    0.1545399964346224 F F F Te
   0.1111110000000011    0.2222223333333323    0.1250151205267624 F F F Te
   0.1111110000000011    0.5555556666666657    0.1250151205267624 F F F Te
   0.1111110000000011    0.8888889999999989    0.1250151205267624 F F F Te
   0.4444443333333344    0.2222223333333323    0.1250151205267624 F F F Te
   0.4444443333333344    0.5555556666666657    0.1250151205267624 F F F Te
   0.4444443333333344    0.8888889999999989    0.1250151205267624 F F F Te
   0.7777776666666678    0.2222223333333323    0.1250151205267624 F F F Te
   0.7777776666666678    0.5555556666666657    0.1250151205267624 F F F Te
   0.7777776666666678    0.8888889999999989    0.1250151205267624 F F F Te
   0.1111110000000011    0.2222223333333323    0.1787938203629977 F F F Te
   0.1111110000000011    0.5555556666666657    0.1787938203629977 F F F Te
   0.1111110000000011    0.8888889999999989    0.1787938203629977 F F F Te
   0.4444443333333344    0.2222223333333323    0.1787938203629977 F F F Te
   0.4444443333333344    0.5555556666666657    0.1787938203629977 F F F Te
   0.4444443333333344    0.8888889999999989    0.1787938203629977 F F F Te
   0.7777776666666678    0.2222223333333323    0.1787938203629977 F F F Te
   0.7777776666666678    0.5555556666666657    0.1787938203629977 F F F Te
   0.7777776666666678    0.8888889999999989    0.1787938203629977 F F F Te
   0.2222223333333322    0.1111110000000011    0.4878219285476287 T T T Te
   0.2222223333333322    0.4444443333333344    0.4878219285476287 T T T Te
   0.2222223333333323    0.7777776666666678    0.4878219285476287 T T T Te
   0.5555556666666657    0.1111110000000011    0.4878219285476287 T T T Te
   0.5555556666666656    0.4444443333333344    0.4878219285476287 T T T Te
   0.5555556666666657    0.7777776666666678    0.4878219285476287 T T T Te
   0.8888889999999990    0.1111110000000011    0.4878219285476287 T T T Te
   0.8888889999999989    0.4444443333333344    0.4878219285476287 T T T Te
   0.8888889999999989    0.7777776666666678    0.4878219285476287 T T T Te
   0.0000000000000000    0.0000000000000000    0.4583285188346057 T T T Te
   0.0000000000000000    0.3333333333333333    0.4583285188346057 T T T Te
   0.0000000000000000    0.6666666666666666    0.4583285188346057 T T T Te
   0.3333333333333334    0.0000000000000000    0.4583285188346057 T T T Te
   0.3333333333333334    0.3333333333333333    0.4583285188346057 T T T Te
   0.3333333333333333    0.6666666666666666    0.4583285188346057 T T T Te
   0.6666666666666667    0.0000000000000000    0.4583285188346057 T T T Te
   0.6666666666666666    0.3333333333333333    0.4583285188346057 T T T Te
   0.6666666666666667    0.6666666666666666    0.4583285188346057 T T T Te
   0.0000000000000000    0.0000000000000000    0.2621277982899868 F F F Te
   0.0000000000000000    0.3333333333333333    0.2621277982899868 F F F Te
   0.0000000000000000    0.6666666666666666    0.2621277982899868 F F F Te
   0.3333333333333334    0.0000000000000000    0.2621277982899868 F F F Te
   0.3333333333333334    0.3333333333333333    0.2621277982899868 F F F Te
   0.3333333333333333    0.6666666666666666    0.2621277982899868 F F F Te
   0.6666666666666667    0.0000000000000000    0.2621277982899868 F F F Te
   0.6666666666666666    0.3333333333333333    0.2621277982899868 F F F Te
   0.6666666666666667    0.6666666666666666    0.2621277982899868 F F F Te
   0.1111110000000011    0.2222223333333323    0.3212073262793237 T T T Te
   0.1111110000000011    0.5555556666666657    0.3212073262793237 T T T Te
   0.1111110000000011    0.8888889999999989    0.3212073262793237 T T T Te
   0.4444443333333344    0.2222223333333323    0.3212073262793237 T T T Te
   0.4444443333333344    0.5555556666666657    0.3212073262793237 T T T Te
   0.4444443333333344    0.8888889999999989    0.3212073262793237 T T T Te
   0.7777776666666678    0.2222223333333323    0.3212073262793237 T T T Te
   0.7777776666666678    0.5555556666666657    0.3212073262793237 T T T Te
   0.7777776666666678    0.8888889999999989    0.3212073262793237 T T T Te
   0.2222223333333322    0.1111110000000011    0.2916627416767306 F F F Te
   0.2222223333333322    0.4444443333333344    0.2916627416767306 F F F Te
   0.2222223333333323    0.7777776666666678    0.2916627416767306 F F F Te
   0.5555556666666657    0.1111110000000011    0.2916627416767306 F F F Te
   0.5555556666666656    0.4444443333333344    0.2916627416767306 F F F Te
   0.5555556666666657    0.7777776666666678    0.2916627416767306 F F F Te
   0.8888889999999990    0.1111110000000011    0.2916627416767306 F F F Te
   0.8888889999999989    0.4444443333333344    0.2916627416767306 F F F Te
   0.8888889999999989    0.7777776666666678    0.2916627416767306 F F F Te
   0.2222223333333322    0.1111110000000011    0.3454705634965933 T T T Te
   0.2222223333333322    0.4444443333333344    0.3454705634965933 T T T Te
   0.2222223333333323    0.7777776666666678    0.3454705634965933 T T T Te
   0.5555556666666657    0.1111110000000011    0.3454705634965933 T T T Te
   0.5555556666666656    0.4444443333333344    0.3454705634965933 T T T Te
   0.5555556666666657    0.7777776666666678    0.3454705634965933 T T T Te
   0.8888889999999990    0.1111110000000011    0.3454705634965933 T T T Te
   0.8888889999999989    0.4444443333333344    0.3454705634965933 T T T Te
   0.8888889999999989    0.7777776666666678    0.3454705634965933 T T T Te
   0.0000000000000000    0.0000000000000000    0.4045366682475858 T T T Te
   0.0000000000000000    0.3333333333333333    0.4045366682475858 T T T Te
   0.0000000000000000    0.6666666666666666    0.4045366682475858 T T T Te
   0.3333333333333334    0.0000000000000000    0.4045366682475858 T T T Te
   0.3333333333333334    0.3333333333333333    0.4045366682475858 T T T Te
   0.3333333333333333    0.6666666666666666    0.4045366682475858 T T T Te
   0.6666666666666667    0.0000000000000000    0.4045366682475858 T T T Te
   0.6666666666666666    0.3333333333333333    0.4045366682475858 T T T Te
   0.6666666666666667    0.6666666666666666    0.4045366682475858 T T T Te
   0.1111110000000011    0.2222223333333323    0.3749892323693022 T T T Te
   0.1111110000000011    0.5555556666666657    0.3749892323693022 T T T Te
   0.1111110000000011    0.8888889999999989    0.3749892323693022 T T T Te
   0.4444443333333344    0.2222223333333323    0.3749892323693022 T T T Te
   0.4444443333333344    0.5555556666666657    0.3749892323693022 T T T Te
   0.4444443333333344    0.8888889999999989    0.3749892323693022 T T T Te
   0.7777776666666678    0.2222223333333323    0.3749892323693022 T T T Te
   0.7777776666666678    0.5555556666666657    0.3749892323693022 T T T Te
   0.7777776666666678    0.8888889999999989    0.3749892323693022 T T T Te
   0.1111110000000011    0.2222223333333323    0.4287940743741369 T T T Te
   0.1111110000000011    0.5555556666666657    0.4287940743741369 T T T Te
   0.1111110000000011    0.8888889999999989    0.4287940743741369 T T T Te
   0.4444443333333344    0.2222223333333323    0.4287940743741369 T T T Te
   0.4444443333333344    0.5555556666666657    0.4287940743741369 T T T Te
   0.4444443333333344    0.8888889999999989    0.4287940743741369 T T T Te
   0.7777776666666678    0.2222223333333323    0.4287940743741369 T T T Te
   0.7777776666666678    0.5555556666666657    0.4287940743741369 T T T Te
   0.7777776666666678    0.8888889999999989    0.4287940743741369 T T T Te
