k-point density of [50, 50, 50]/[a, b, c]
0
Gamma
17.0 17.0 3.0
