B12 Mo6
1.0
   1.5074012640422547   -2.6108955767147335    0.0000000000000000
   1.5074012640422547    2.6108955767147335    0.0000000000000000
   0.0000000000000000    0.0000000000000000   20.8775569389451157
B Mo
12 6
direct
   0.6666666666666666    0.3333333333333333    0.1516643033333333 B
   0.0000000000000000    0.0000000000000000    0.1816690300000000 B
   0.0000000000000000    0.0000000000000000    0.3321028500000001 B
   0.6666666666666666    0.3333333333333333    0.0012304833333332 B
   0.3333333333333333    0.6666666666666666    0.4849976366666666 B
   0.6666666666666666    0.3333333333333333    0.5150023633333334 B
   0.6666666666666666    0.3333333333333333    0.6654361833333334 B
   0.3333333333333333    0.6666666666666666    0.3345638166666665 B
   0.0000000000000000    0.0000000000000000    0.8183309699999999 B
   0.3333333333333333    0.6666666666666666    0.8483356966666666 B
   0.3333333333333333    0.6666666666666666    0.9987695166666668 B
   0.0000000000000000    0.0000000000000000    0.6678971499999998 B
   0.6666666666666666    0.3333333333333333    0.2576804733333333 Mo
   0.0000000000000000    0.0000000000000000    0.0756528600000000 Mo
   0.3333333333333333    0.6666666666666666    0.5910138066666666 Mo
   0.6666666666666666    0.3333333333333333    0.4089861933333334 Mo
   0.0000000000000000    0.0000000000000000    0.9243471399999998 Mo
   0.3333333333333333    0.6666666666666666    0.7423195266666667 Mo
