ADDGRID = .TRUE.
EDIFF = 1.0E-06
EDIFFG = -1.0E-05
ENCUT = 520
IALGO = 48
IBRION = 2
ICHARG = 2
ISIF = 2
ISMEAR = 0
ISPIN = 1
ISTART = 0
LREAL = Auto
NELM = 60
NELMDL = 10
NELMIN = 2
NSW = 25
PREC = Accurate
SIGMA = 0.10
System = AutoVASP Med. Precision Slab Relaxation
VOSKOWN = 1
