Bi108 Se162
1.0
  12.5777520754700909    0.0000000000000000    0.0000000000000009
  -6.2888765794129204   10.8926525071216638    0.0000000000000009
   0.0000000000000000    0.0000000000000000  124.6983106746735643
Bi Se
108 162
Selective dynamics
direct
   0.1111110000000011    0.2222223333333323    0.2239809557014008 F F F Bi
   0.1111110000000010    0.5555556666666656    0.2239809557014008 F F F Bi
   0.1111110000000011    0.8888889999999989    0.2239809557014008 F F F Bi
   0.4444443333333343    0.2222223333333323    0.2239809557014008 F F F Bi
   0.4444443333333343    0.5555556666666656    0.2239809557014008 F F F Bi
   0.4444443333333344    0.8888889999999989    0.2239809557014008 F F F Bi
   0.7777776666666676    0.2222223333333323    0.2239809557014008 F F F Bi
   0.7777776666666676    0.5555556666666656    0.2239809557014008 F F F Bi
   0.7777776666666676    0.8888889999999989    0.2239809557014008 F F F Bi
   0.1111110000000011    0.2222223333333323    0.0260357288692390 F F F Bi
   0.1111110000000010    0.5555556666666656    0.0260357288692390 F F F Bi
   0.1111110000000011    0.8888889999999989    0.0260357288692390 F F F Bi
   0.4444443333333343    0.2222223333333323    0.0260357288692390 F F F Bi
   0.4444443333333343    0.5555556666666656    0.0260357288692390 F F F Bi
   0.4444443333333344    0.8888889999999989    0.0260357288692390 F F F Bi
   0.7777776666666676    0.2222223333333323    0.0260357288692390 F F F Bi
   0.7777776666666676    0.5555556666666656    0.0260357288692390 F F F Bi
   0.7777776666666676    0.8888889999999989    0.0260357288692390 F F F Bi
   0.0000000000000000    0.0000000000000000    0.0573113465007680 F F F Bi
   1.0000000000000000    0.3333333333333333    0.0573113465007680 F F F Bi
   1.0000000000000000    0.6666666666666666    0.0573113465007680 F F F Bi
   0.3333333333333333    0.0000000000000000    0.0573113465007680 F F F Bi
   0.3333333333333333    0.3333333333333333    0.0573113465007680 F F F Bi
   0.3333333333333333    0.6666666666666666    0.0573113465007680 F F F Bi
   0.6666666666666665    0.0000000000000000    0.0573113465007680 F F F Bi
   0.6666666666666665    0.3333333333333333    0.0573113465007680 F F F Bi
   0.6666666666666665    0.6666666666666666    0.0573113465007680 F F F Bi
   0.0000000000000000    0.0000000000000000    0.1093487654701826 F F F Bi
   1.0000000000000000    0.3333333333333333    0.1093487654701826 F F F Bi
   1.0000000000000000    0.6666666666666666    0.1093487654701826 F F F Bi
   0.3333333333333333    0.0000000000000000    0.1093487654701826 F F F Bi
   0.3333333333333333    0.3333333333333333    0.1093487654701826 F F F Bi
   0.3333333333333333    0.6666666666666666    0.1093487654701826 F F F Bi
   0.6666666666666665    0.0000000000000000    0.1093487654701826 F F F Bi
   0.6666666666666665    0.3333333333333333    0.1093487654701826 F F F Bi
   0.6666666666666665    0.6666666666666666    0.1093487654701826 F F F Bi
   0.2222223333333323    0.1111110000000011    0.1406479022795789 F F F Bi
   0.2222223333333323    0.4444443333333344    0.1406479022795789 F F F Bi
   0.2222223333333323    0.7777776666666677    0.1406479022795789 F F F Bi
   0.5555556666666656    0.1111110000000011    0.1406479022795789 F F F Bi
   0.5555556666666656    0.4444443333333344    0.1406479022795789 F F F Bi
   0.5555556666666656    0.7777776666666677    0.1406479022795789 F F F Bi
   0.8888889999999989    0.1111110000000011    0.1406479022795789 F F F Bi
   0.8888889999999988    0.4444443333333344    0.1406479022795789 F F F Bi
   0.8888889999999988    0.7777776666666677    0.1406479022795789 F F F Bi
   0.2222223333333323    0.1111110000000011    0.1926854728225884 F F F Bi
   0.2222223333333323    0.4444443333333344    0.1926854728225884 F F F Bi
   0.2222223333333323    0.7777776666666677    0.1926854728225884 F F F Bi
   0.5555556666666656    0.1111110000000011    0.1926854728225884 F F F Bi
   0.5555556666666656    0.4444443333333344    0.1926854728225884 F F F Bi
   0.5555556666666656    0.7777776666666677    0.1926854728225884 F F F Bi
   0.8888889999999989    0.1111110000000011    0.1926854728225884 F F F Bi
   0.8888889999999988    0.4444443333333344    0.1926854728225884 F F F Bi
   0.8888889999999988    0.7777776666666677    0.1926854728225884 F F F Bi
   0.1111110000000011    0.2222223333333323    0.4740053372119247 T T T Bi
   0.1111110000000010    0.5555556666666656    0.4740053372119247 T T T Bi
   0.1111110000000011    0.8888889999999989    0.4740053372119247 T T T Bi
   0.4444443333333343    0.2222223333333323    0.4740053372119247 T T T Bi
   0.4444443333333343    0.5555556666666656    0.4740053372119247 T T T Bi
   0.4444443333333344    0.8888889999999989    0.4740053372119247 T T T Bi
   0.7777776666666676    0.2222223333333323    0.4740053372119247 T T T Bi
   0.7777776666666676    0.5555556666666656    0.4740053372119247 T T T Bi
   0.7777776666666676    0.8888889999999989    0.4740053372119247 T T T Bi
   0.1111110000000011    0.2222223333333323    0.2760156743820202 F F F Bi
   0.1111110000000010    0.5555556666666656    0.2760156743820202 F F F Bi
   0.1111110000000011    0.8888889999999989    0.2760156743820202 F F F Bi
   0.4444443333333343    0.2222223333333323    0.2760156743820202 F F F Bi
   0.4444443333333343    0.5555556666666656    0.2760156743820202 F F F Bi
   0.4444443333333344    0.8888889999999989    0.2760156743820202 F F F Bi
   0.7777776666666676    0.2222223333333323    0.2760156743820202 F F F Bi
   0.7777776666666676    0.5555556666666656    0.2760156743820202 F F F Bi
   0.7777776666666676    0.8888889999999989    0.2760156743820202 F F F Bi
   0.0000000000000000    0.0000000000000000    0.3072977711307630 F F F Bi
   1.0000000000000000    0.3333333333333333    0.3072977711307630 F F F Bi
   1.0000000000000000    0.6666666666666666    0.3072977711307630 F F F Bi
   0.3333333333333333    0.0000000000000000    0.3072977711307630 F F F Bi
   0.3333333333333333    0.3333333333333333    0.3072977711307630 F F F Bi
   0.3333333333333333    0.6666666666666666    0.3072977711307630 F F F Bi
   0.6666666666666665    0.0000000000000000    0.3072977711307630 F F F Bi
   0.6666666666666665    0.3333333333333333    0.3072977711307630 F F F Bi
   0.6666666666666665    0.6666666666666666    0.3072977711307630 F F F Bi
   0.0000000000000000    0.0000000000000000    0.3593517251768394 T T T Bi
   1.0000000000000000    0.3333333333333333    0.3593517251768394 T T T Bi
   1.0000000000000000    0.6666666666666666    0.3593517251768394 T T T Bi
   0.3333333333333333    0.0000000000000000    0.3593517251768394 T T T Bi
   0.3333333333333333    0.3333333333333333    0.3593517251768394 T T T Bi
   0.3333333333333333    0.6666666666666666    0.3593517251768394 T T T Bi
   0.6666666666666665    0.0000000000000000    0.3593517251768394 T T T Bi
   0.6666666666666665    0.3333333333333333    0.3593517251768394 T T T Bi
   0.6666666666666665    0.6666666666666666    0.3593517251768394 T T T Bi
   0.2222223333333323    0.1111110000000011    0.3906511543278031 T T T Bi
   0.2222223333333323    0.4444443333333344    0.3906511543278031 T T T Bi
   0.2222223333333323    0.7777776666666677    0.3906511543278031 T T T Bi
   0.5555556666666656    0.1111110000000011    0.3906511543278031 T T T Bi
   0.5555556666666656    0.4444443333333344    0.3906511543278031 T T T Bi
   0.5555556666666656    0.7777776666666677    0.3906511543278031 T T T Bi
   0.8888889999999989    0.1111110000000011    0.3906511543278031 T T T Bi
   0.8888889999999988    0.4444443333333344    0.3906511543278031 T T T Bi
   0.8888889999999988    0.7777776666666677    0.3906511543278031 T T T Bi
   0.2222223333333323    0.1111110000000011    0.4426968735117573 T T T Bi
   0.2222223333333323    0.4444443333333344    0.4426968735117573 T T T Bi
   0.2222223333333323    0.7777776666666677    0.4426968735117573 T T T Bi
   0.5555556666666656    0.1111110000000011    0.4426968735117573 T T T Bi
   0.5555556666666656    0.4444443333333344    0.4426968735117573 T T T Bi
   0.5555556666666656    0.7777776666666677    0.4426968735117573 T T T Bi
   0.8888889999999989    0.1111110000000011    0.4426968735117573 T T T Bi
   0.8888889999999988    0.4444443333333344    0.4426968735117573 T T T Bi
   0.8888889999999988    0.7777776666666677    0.4426968735117573 T T T Bi
   0.0000000000000000    0.0000000000000000    0.2083336486068514 F F F Se
   1.0000000000000000    0.3333333333333333    0.2083336486068514 F F F Se
   1.0000000000000000    0.6666666666666666    0.2083336486068514 F F F Se
   0.3333333333333333    0.0000000000000000    0.2083336486068514 F F F Se
   0.3333333333333333    0.3333333333333333    0.2083336486068514 F F F Se
   0.3333333333333333    0.6666666666666666    0.2083336486068514 F F F Se
   0.6666666666666665    0.0000000000000000    0.2083336486068514 F F F Se
   0.6666666666666665    0.3333333333333333    0.2083336486068514 F F F Se
   0.6666666666666665    0.6666666666666666    0.2083336486068514 F F F Se
   0.2222223333333323    0.1111110000000011    0.2365307624798375 F F F Se
   0.2222223333333323    0.4444443333333344    0.2365307624798375 F F F Se
   0.2222223333333323    0.7777776666666677    0.2365307624798375 F F F Se
   0.5555556666666656    0.1111110000000011    0.2365307624798375 F F F Se
   0.5555556666666656    0.4444443333333344    0.2365307624798375 F F F Se
   0.5555556666666656    0.7777776666666677    0.2365307624798375 F F F Se
   0.8888889999999989    0.1111110000000011    0.2365307624798375 F F F Se
   0.8888889999999988    0.4444443333333344    0.2365307624798375 F F F Se
   0.8888889999999988    0.7777776666666677    0.2365307624798375 F F F Se
   0.0000000000000000    0.0000000000000000    0.0135298382880085 F F F Se
   1.0000000000000000    0.3333333333333333    0.0135298382880085 F F F Se
   1.0000000000000000    0.6666666666666666    0.0135298382880085 F F F Se
   0.3333333333333333    0.0000000000000000    0.0135298382880085 F F F Se
   0.3333333333333333    0.3333333333333333    0.0135298382880085 F F F Se
   0.3333333333333333    0.6666666666666666    0.0135298382880085 F F F Se
   0.6666666666666665    0.0000000000000000    0.0135298382880085 F F F Se
   0.6666666666666665    0.3333333333333333    0.0135298382880085 F F F Se
   0.6666666666666665    0.6666666666666666    0.0135298382880085 F F F Se
   0.2222223333333323    0.1111110000000011    0.0417100221546751 F F F Se
   0.2222223333333323    0.4444443333333344    0.0417100221546751 F F F Se
   0.2222223333333323    0.7777776666666677    0.0417100221546751 F F F Se
   0.5555556666666656    0.1111110000000011    0.0417100221546751 F F F Se
   0.5555556666666656    0.4444443333333344    0.0417100221546751 F F F Se
   0.5555556666666656    0.7777776666666677    0.0417100221546751 F F F Se
   0.8888889999999989    0.1111110000000011    0.0417100221546751 F F F Se
   0.8888889999999988    0.4444443333333344    0.0417100221546751 F F F Se
   0.8888889999999988    0.7777776666666677    0.0417100221546751 F F F Se
   0.1111110000000011    0.2222223333333323    0.0698642574912556 F F F Se
   0.1111110000000010    0.5555556666666656    0.0698642574912556 F F F Se
   0.1111110000000011    0.8888889999999989    0.0698642574912556 F F F Se
   0.4444443333333343    0.2222223333333323    0.0698642574912556 F F F Se
   0.4444443333333343    0.5555556666666656    0.0698642574912556 F F F Se
   0.4444443333333344    0.8888889999999989    0.0698642574912556 F F F Se
   0.7777776666666676    0.2222223333333323    0.0698642574912556 F F F Se
   0.7777776666666676    0.5555556666666656    0.0698642574912556 F F F Se
   0.7777776666666676    0.8888889999999989    0.0698642574912556 F F F Se
   0.2222223333333323    0.1111110000000011    0.0968011522160693 F F F Se
   0.2222223333333323    0.4444443333333344    0.0968011522160693 F F F Se
   0.2222223333333323    0.7777776666666677    0.0968011522160693 F F F Se
   0.5555556666666656    0.1111110000000011    0.0968011522160693 F F F Se
   0.5555556666666656    0.4444443333333344    0.0968011522160693 F F F Se
   0.5555556666666656    0.7777776666666677    0.0968011522160693 F F F Se
   0.8888889999999989    0.1111110000000011    0.0968011522160693 F F F Se
   0.8888889999999988    0.4444443333333344    0.0968011522160693 F F F Se
   0.8888889999999988    0.7777776666666677    0.0968011522160693 F F F Se
   0.1111110000000011    0.2222223333333323    0.1250022518342396 F F F Se
   0.1111110000000010    0.5555556666666656    0.1250022518342396 F F F Se
   0.1111110000000011    0.8888889999999989    0.1250022518342396 F F F Se
   0.4444443333333343    0.2222223333333323    0.1250022518342396 F F F Se
   0.4444443333333343    0.5555556666666656    0.1250022518342396 F F F Se
   0.4444443333333344    0.8888889999999989    0.1250022518342396 F F F Se
   0.7777776666666676    0.2222223333333323    0.1250022518342396 F F F Se
   0.7777776666666676    0.5555556666666656    0.1250022518342396 F F F Se
   0.7777776666666676    0.8888889999999989    0.1250022518342396 F F F Se
   0.0000000000000000    0.0000000000000000    0.1531984494163183 F F F Se
   1.0000000000000000    0.3333333333333333    0.1531984494163183 F F F Se
   1.0000000000000000    0.6666666666666666    0.1531984494163183 F F F Se
   0.3333333333333333    0.0000000000000000    0.1531984494163183 F F F Se
   0.3333333333333333    0.3333333333333333    0.1531984494163183 F F F Se
   0.3333333333333333    0.6666666666666666    0.1531984494163183 F F F Se
   0.6666666666666665    0.0000000000000000    0.1531984494163183 F F F Se
   0.6666666666666665    0.3333333333333333    0.1531984494163183 F F F Se
   0.6666666666666665    0.6666666666666666    0.1531984494163183 F F F Se
   0.1111110000000011    0.2222223333333323    0.1801362928613923 F F F Se
   0.1111110000000010    0.5555556666666656    0.1801362928613923 F F F Se
   0.1111110000000011    0.8888889999999989    0.1801362928613923 F F F Se
   0.4444443333333343    0.2222223333333323    0.1801362928613923 F F F Se
   0.4444443333333343    0.5555556666666656    0.1801362928613923 F F F Se
   0.4444443333333344    0.8888889999999989    0.1801362928613923 F F F Se
   0.7777776666666676    0.2222223333333323    0.1801362928613923 F F F Se
   0.7777776666666676    0.5555556666666656    0.1801362928613923 F F F Se
   0.7777776666666676    0.8888889999999989    0.1801362928613923 F F F Se
   0.0000000000000000    0.0000000000000000    0.4583120616675800 T T T Se
   1.0000000000000000    0.3333333333333333    0.4583120616675800 T T T Se
   1.0000000000000000    0.6666666666666666    0.4583120616675800 T T T Se
   0.3333333333333333    0.0000000000000000    0.4583120616675800 T T T Se
   0.3333333333333333    0.3333333333333333    0.4583120616675800 T T T Se
   0.3333333333333333    0.6666666666666666    0.4583120616675800 T T T Se
   0.6666666666666665    0.0000000000000000    0.4583120616675800 T T T Se
   0.6666666666666665    0.3333333333333333    0.4583120616675800 T T T Se
   0.6666666666666665    0.6666666666666666    0.4583120616675800 T T T Se
   0.2222223333333323    0.1111110000000011    0.4865194904892909 T T T Se
   0.2222223333333323    0.4444443333333344    0.4865194904892909 T T T Se
   0.2222223333333323    0.7777776666666677    0.4865194904892909 T T T Se
   0.5555556666666656    0.1111110000000011    0.4865194904892909 T T T Se
   0.5555556666666656    0.4444443333333344    0.4865194904892909 T T T Se
   0.5555556666666656    0.7777776666666677    0.4865194904892909 T T T Se
   0.8888889999999989    0.1111110000000011    0.4865194904892909 T T T Se
   0.8888889999999988    0.4444443333333344    0.4865194904892909 T T T Se
   0.8888889999999988    0.7777776666666677    0.4865194904892909 T T T Se
   0.0000000000000000    0.0000000000000000    0.2634703264675667 F F F Se
   1.0000000000000000    0.3333333333333333    0.2634703264675667 F F F Se
   1.0000000000000000    0.6666666666666666    0.2634703264675667 F F F Se
   0.3333333333333333    0.0000000000000000    0.2634703264675667 F F F Se
   0.3333333333333333    0.3333333333333333    0.2634703264675667 F F F Se
   0.3333333333333333    0.6666666666666666    0.2634703264675667 F F F Se
   0.6666666666666665    0.0000000000000000    0.2634703264675667 F F F Se
   0.6666666666666665    0.3333333333333333    0.2634703264675667 F F F Se
   0.6666666666666665    0.6666666666666666    0.2634703264675667 F F F Se
   0.2222223333333323    0.1111110000000011    0.2916601671162933 F F F Se
   0.2222223333333323    0.4444443333333344    0.2916601671162933 F F F Se
   0.2222223333333323    0.7777776666666677    0.2916601671162933 F F F Se
   0.5555556666666656    0.1111110000000011    0.2916601671162933 F F F Se
   0.5555556666666656    0.4444443333333344    0.2916601671162933 F F F Se
   0.5555556666666656    0.7777776666666677    0.2916601671162933 F F F Se
   0.8888889999999989    0.1111110000000011    0.2916601671162933 F F F Se
   0.8888889999999988    0.4444443333333344    0.2916601671162933 F F F Se
   0.8888889999999988    0.7777776666666677    0.2916601671162933 F F F Se
   0.1111110000000011    0.2222223333333323    0.3198482253631876 F F F Se
   0.1111110000000010    0.5555556666666656    0.3198482253631876 F F F Se
   0.1111110000000011    0.8888889999999989    0.3198482253631876 F F F Se
   0.4444443333333343    0.2222223333333323    0.3198482253631876 F F F Se
   0.4444443333333343    0.5555556666666656    0.3198482253631876 F F F Se
   0.4444443333333344    0.8888889999999989    0.3198482253631876 F F F Se
   0.7777776666666676    0.2222223333333323    0.3198482253631876 F F F Se
   0.7777776666666676    0.5555556666666656    0.3198482253631876 F F F Se
   0.7777776666666676    0.8888889999999989    0.3198482253631876 F F F Se
   0.2222223333333323    0.1111110000000011    0.3468015758336337 T T T Se
   0.2222223333333323    0.4444443333333344    0.3468015758336337 T T T Se
   0.2222223333333323    0.7777776666666677    0.3468015758336337 T T T Se
   0.5555556666666656    0.1111110000000011    0.3468015758336337 T T T Se
   0.5555556666666656    0.4444443333333344    0.3468015758336337 T T T Se
   0.5555556666666656    0.7777776666666677    0.3468015758336337 T T T Se
   0.8888889999999989    0.1111110000000011    0.3468015758336337 T T T Se
   0.8888889999999988    0.4444443333333344    0.3468015758336337 T T T Se
   0.8888889999999988    0.7777776666666677    0.3468015758336337 T T T Se
   0.1111110000000011    0.2222223333333323    0.3749979572125320 T T T Se
   0.1111110000000010    0.5555556666666656    0.3749979572125320 T T T Se
   0.1111110000000011    0.8888889999999989    0.3749979572125320 T T T Se
   0.4444443333333343    0.2222223333333323    0.3749979572125320 T T T Se
   0.4444443333333343    0.5555556666666656    0.3749979572125320 T T T Se
   0.4444443333333344    0.8888889999999989    0.3749979572125320 T T T Se
   0.7777776666666676    0.2222223333333323    0.3749979572125320 T T T Se
   0.7777776666666676    0.5555556666666656    0.3749979572125320 T T T Se
   0.7777776666666676    0.8888889999999989    0.3749979572125320 T T T Se
   0.0000000000000000    0.0000000000000000    0.4031988777297054 T T T Se
   1.0000000000000000    0.3333333333333333    0.4031988777297054 T T T Se
   1.0000000000000000    0.6666666666666666    0.4031988777297054 T T T Se
   0.3333333333333333    0.0000000000000000    0.4031988777297054 T T T Se
   0.3333333333333333    0.3333333333333333    0.4031988777297054 T T T Se
   0.3333333333333333    0.6666666666666666    0.4031988777297054 T T T Se
   0.6666666666666665    0.0000000000000000    0.4031988777297054 T T T Se
   0.6666666666666665    0.3333333333333333    0.4031988777297054 T T T Se
   0.6666666666666665    0.6666666666666666    0.4031988777297054 T T T Se
   0.1111110000000011    0.2222223333333323    0.4301340149754778 T T T Se
   0.1111110000000010    0.5555556666666656    0.4301340149754778 T T T Se
   0.1111110000000011    0.8888889999999989    0.4301340149754778 T T T Se
   0.4444443333333343    0.2222223333333323    0.4301340149754778 T T T Se
   0.4444443333333343    0.5555556666666656    0.4301340149754778 T T T Se
   0.4444443333333344    0.8888889999999989    0.4301340149754778 T T T Se
   0.7777776666666676    0.2222223333333323    0.4301340149754778 T T T Se
   0.7777776666666676    0.5555556666666656    0.4301340149754778 T T T Se
   0.7777776666666676    0.8888889999999989    0.4301340149754778 T T T Se
