k-point density of [50, 50, 50]/[a, b, c]
0
Gamma
15.0 8.0 4.0
