Te8 W4
1.0
   3.5185995999999995    0.0000000000000000    0.0000000000000002
   0.0000000000000010    6.3023362099999991    0.0000000000000004
   0.0000000000000000    0.0000000000000000   15.0057766600000004
Te W
8 4
direct
   0.5000000000000000    0.7957999000000002    0.9102402600000000 Te
   0.0000000000000000    0.2042000999999998    0.4102402600000001 Te
   0.5000000000000000    0.6972695900000002    0.3692475900000000 Te
   0.0000000000000000    0.3027304099999998    0.8692475900000001 Te
   0.0000000000000000    0.8577402300000002    0.6458926600000000 Te
   0.5000000000000000    0.1422597699999998    0.1458926599999999 Te
   0.0000000000000000    0.6479722500000001    0.1048281300000000 Te
   0.5000000000000000    0.3520277499999999    0.6048281300000000 Te
   0.5000000000000000    0.9559959300000003    0.5147330800000000 W
   0.0000000000000000    0.0440040699999997    0.0147330800000001 W
   0.5000000000000000    0.3996247600000001    0.0003482800000000 W
   0.0000000000000000    0.6003752400000000    0.5003482800000000 W
