k-point density of [50, 50, 50]/[a, b, c]
0
Gamma
16.0 5.0 11.0
