P8 W4
1.0
   3.1854658011026031    0.0000000000000000    0.0000000000000002
   0.0000000000000018   11.1711102529535431    0.0000000000000007
   0.0000000000000000    0.0000000000000000    4.9837402300000004
P W
8 4
direct
   0.5000000000000000    0.4306392700000001    0.3827129100000000 P
   0.0000000000000000    0.0693607299999999    0.8827129100000000 P
   0.0000000000000000    0.2004615800000000    0.1993292100000000 P
   0.5000000000000000    0.2995384200000000    0.6993292100000000 P
   0.0000000000000000    0.9306392700000001    0.3827129100000000 P
   0.5000000000000000    0.5693607299999999    0.8827129100000000 P
   0.5000000000000000    0.7004615800000000    0.1993292100000000 P
   0.0000000000000000    0.7995384200000000    0.6993292100000000 P
   0.5000000000000000    0.0935169100000000    0.5009588899999999 W
   0.0000000000000000    0.4064830900000000    0.0009588899999999 W
   0.0000000000000000    0.5935169100000000    0.5009588899999999 W
   0.5000000000000000    0.9064830900000000    0.0009588899999999 W
